%mem=64gb
%nproc=28       
%Chk=snap_41.chk
# opt b3lyp/6-31g(d,p)  scf=(xqc, tight)  pop=min    

tetra snap_41 

2     1 
  O    1.369659053  -4.029194757  -6.530554178
  C    1.663192646  -3.487100528  -7.814270055
  H    2.008758725  -4.363872326  -8.400480800
  H    2.498189600  -2.766053770  -7.730871088
  C    0.427478747  -2.847764184  -8.469757199
  H    0.539173436  -1.750999131  -8.628664653
  O    0.347090152  -3.383740591  -9.829971483
  C   -0.834578632  -4.148606398 -10.007224171
  H   -1.129543982  -4.008171111 -11.078564077
  C   -0.928786744  -3.182942137  -7.794263628
  H   -0.821008356  -3.941286227  -6.987049214
  C   -1.822932201  -3.714662945  -8.930209016
  H   -2.479802206  -2.890191101  -9.297608590
  H   -2.533032449  -4.492318864  -8.590363216
  O   -1.493860858  -1.955666575  -7.321890193
  N   -0.421167892  -5.602029990  -9.852990081
  C    0.288707535  -6.326048176 -10.842327772
  C    0.693766756  -7.554175191 -10.243861475
  N    0.243123591  -7.551406366  -8.912308234
  C   -0.406610112  -6.380809621  -8.683422499
  N    0.526073113  -5.956900972 -12.132623583
  C    1.242998760  -6.873157319 -12.872128026
  N    1.690730903  -8.108540304 -12.353412019
  C    1.440806405  -8.546660292 -10.982407311
  N    1.526647226  -6.546293110 -14.170059022
  H    1.210325501  -5.653220802 -14.544423111
  H    2.046981610  -7.149007858 -14.790923011
  O    1.861176473  -9.621167550 -10.644531803
  H   -0.896397194  -6.088936936  -7.705024418
  H    2.219490737  -8.769078567 -12.943056950
  P   -1.456928085  -1.783971579  -5.660922779
  O   -2.036492814  -0.234479736  -5.672358196
  C   -1.020630867   0.775382123  -5.461202083
  H   -1.135179714   1.468614834  -6.323330590
  H    0.014021998   0.365818170  -5.467120312
  C   -1.327145828   1.485944612  -4.137176168
  H   -0.452221929   1.484637510  -3.439441595
  O   -1.499405118   2.907999668  -4.445228944
  C   -2.799906952   3.354673946  -4.094941494
  H   -2.658927107   4.369217631  -3.657609463
  C   -2.632343062   1.019083487  -3.433432834
  H   -3.223430205   0.277888930  -4.029140150
  C   -3.424166519   2.311385256  -3.168753654
  H   -3.297679652   2.595788391  -2.093747134
  H   -4.514051715   2.175686917  -3.291828470
  O   -2.327205462   0.482503611  -2.143291892
  O   -0.079387281  -1.990768643  -5.144183986
  O   -2.692522441  -2.791167732  -5.365260441
  N   -3.571944193   3.479991543  -5.383728021
  C   -3.918424881   4.645741091  -6.061529685
  C   -4.591946145   4.242320688  -7.262144739
  N   -4.620822176   2.841845250  -7.336159609
  C   -4.010623253   2.398080163  -6.238221352
  N   -3.742145039   5.998561716  -5.763885065
  C   -4.264364722   6.918293094  -6.698015504
  N   -4.901335327   6.585186765  -7.805987661
  C   -5.106829843   5.232697801  -8.157013481
  H   -4.123698097   7.999692999  -6.469999744
  N   -5.767467242   4.968029457  -9.295028273
  H   -6.117900800   5.717021911  -9.893275632
  H   -5.939002327   4.007528408  -9.593143111
  H   -3.824050238   1.351217747  -5.981219862
  P   -1.739167898  -1.074949473  -2.129844370
  O   -0.208328654  -0.602219126  -1.820569664
  C    0.834983207  -1.611708799  -1.886812013
  H    0.833380159  -2.116634578  -2.885464692
  H    1.761329835  -1.014353470  -1.772717352
  C    0.553048298  -2.536428201  -0.705538538
  H    0.544453965  -1.993889597   0.272001552
  O   -0.851551650  -2.908742388  -0.936068036
  C   -0.993046119  -4.351743604  -1.114993518
  H   -1.897813996  -4.593464024  -0.500914987
  C    1.362379608  -3.845196697  -0.601106878
  H    2.125515011  -3.956272175  -1.413190784
  C    0.310154657  -4.961320228  -0.608611092
  H    0.668774126  -5.810268450  -1.245574092
  H    0.121673197  -5.417889299   0.399314952
  O    2.115173959  -3.706967832   0.618735729
  O   -1.984280633  -1.769802566  -3.433937024
  O   -2.663010271  -1.542768261  -0.884809183
  N   -1.272578338  -4.632145363  -2.549407853
  C   -0.194973207  -4.692437103  -3.491146440
  N   -0.513638341  -5.195467297  -4.773615760
  C   -1.796393337  -5.672623295  -5.169548650
  C   -2.829845719  -5.621533952  -4.134037274
  C   -2.544213817  -5.156179332  -2.889572874
  O    0.935944712  -4.323327456  -3.229103701
  H    0.275857143  -5.218728990  -5.456889232
  O   -1.908358854  -6.046728371  -6.333835851
  C   -4.180005785  -6.137484576  -4.491608769
  H   -4.982643650  -5.435528352  -4.225497253
  H   -4.271760992  -6.330693196  -5.573832220
  H   -4.384890899  -7.095691444  -3.983827291
  H   -3.293529936  -5.164276240  -2.084033991
  P    2.405508817  -5.019836374   1.573012438
  O    3.412988636  -5.856527924   0.578155040
  C    3.760132558  -7.196365539   1.026011890
  H    4.776918671  -7.095730043   1.463257663
  H    3.056205084  -7.586667745   1.791673016
  C    3.772250873  -8.116513487  -0.199292391
  H    4.649705697  -8.807594898  -0.154892344
  O    2.641819558  -9.030690077  -0.115287266
  C    1.655559389  -8.753066880  -1.123646257
  H    1.468454761  -9.735193060  -1.621701755
  C    3.660638375  -7.395812255  -1.567248648
  H    3.923932913  -6.311503074  -1.512903450
  C    2.221216157  -7.660236240  -2.038308243
  H    1.615696335  -6.724990356  -2.006527567
  H    2.184404095  -7.956016578  -3.105574039
  O    4.625901160  -7.895266122  -2.477256840
  O    1.270780992  -5.787786828   2.095955788
  O    3.377407234  -4.299459425   2.654689108
  N    0.393576313  -8.344224493  -0.408225838
  C   -0.740133001  -7.809918420  -1.184614851
  N   -1.880478076  -7.437478438  -0.497395311
  C   -1.975916555  -7.660195348   0.849594021
  C   -0.894738258  -8.222914878   1.607271640
  C    0.271119306  -8.543536384   0.961747692
  O   -0.567505426  -7.661001075  -2.383563136
  N   -3.140765014  -7.252055697   1.461122290
  H   -3.326141031  -7.496850786   2.422799291
  H   -3.942818103  -6.997595270   0.901483024
  H    1.230515762  -3.298980718  -5.843898820
  H    1.139010025  -8.969086100   1.493344399
  H   -0.978328805  -8.356748478   2.684529915
  H    4.514817297  -8.854762252  -2.655711649
  H   -2.841253426  -3.034101498  -4.376498557
  H   -2.217720117  -1.845626413  -0.031892586
  H    4.013494208  -3.601778575   2.325122656
  H    0.382110176  -8.321962420  -8.263347987
  H   -3.224727666   6.303505554  -4.935447387

