%mem=64gb
%nproc=28       
%Chk=snap_165.chk
# opt b3lyp/6-31g(d,p)  scf=(xqc, tight)  pop=min    

tetra snap_165 

2     1 
  O    1.310679087  -1.728469054  -5.538637563
  C    1.084769399  -2.999445618  -6.139011889
  H    0.946768033  -3.777617310  -5.364117604
  H    2.028871921  -3.199349211  -6.693139841
  C   -0.097067537  -2.887172805  -7.115329723
  H   -0.222160080  -1.829271102  -7.445056465
  O    0.288321011  -3.598994838  -8.342296112
  C   -0.709665881  -4.522687491  -8.746600196
  H   -0.802992895  -4.447945881  -9.856861210
  C   -1.445954577  -3.509972113  -6.666849333
  H   -1.350135887  -4.172151043  -5.781327531
  C   -1.962397011  -4.255379619  -7.907936866
  H   -2.695365291  -3.618078523  -8.454584851
  H   -2.542507554  -5.171135484  -7.661435463
  O   -2.408613893  -2.461710393  -6.425549957
  N   -0.155932169  -5.896992790  -8.426421107
  C   -0.821774080  -7.123192590  -8.649765306
  C   -0.157281497  -8.094571705  -7.841306153
  N    0.912962911  -7.465453196  -7.192954465
  C    0.892686489  -6.151647579  -7.519489213
  N   -1.880155231  -7.374684675  -9.473408602
  C   -2.353796395  -8.665226318  -9.413668990
  N   -1.792031500  -9.673864871  -8.589502501
  C   -0.676150963  -9.429708498  -7.695190970
  N   -3.435803347  -8.976343686 -10.194342679
  H   -3.831713670  -8.267217064 -10.808268565
  H   -3.818158231  -9.907727607 -10.262132725
  O   -0.329731454 -10.309877137  -6.939791399
  H    1.604839422  -5.392958816  -7.156601020
  H   -2.223076092 -10.607532793  -8.534653472
  P   -2.471629445  -1.862503525  -4.889155565
  O   -3.095756569  -0.383842193  -5.225986329
  C   -2.247378932   0.478332316  -6.019333607
  H   -2.910916010   1.359196756  -6.164962634
  H   -2.049531249   0.023856481  -7.010931339
  C   -0.956440863   0.861518080  -5.278569520
  H   -0.107514060   0.138873124  -5.437403160
  O   -0.466747342   2.095703324  -5.892619129
  C   -0.471133638   3.171808827  -4.953855329
  H    0.464962976   3.750772108  -5.156781793
  C   -1.170946817   1.166498701  -3.771445626
  H   -2.246589227   1.094872610  -3.468121086
  C   -0.591427365   2.576391234  -3.557429446
  H    0.419401329   2.477038281  -3.080954148
  H   -1.166202911   3.174635655  -2.830211634
  O   -0.320413378   0.277785490  -3.026949431
  O   -1.056028640  -1.868355266  -4.320365759
  O   -3.569983607  -2.811710867  -4.190906377
  N   -1.645819957   4.029014372  -5.340482181
  C   -1.865699242   4.540003657  -6.617971694
  C   -3.100665009   5.263360962  -6.570360899
  N   -3.644346495   5.174131864  -5.281086787
  C   -2.792506382   4.440587833  -4.564725297
  N   -1.118955683   4.457523579  -7.793177158
  C   -1.647341620   5.133285318  -8.911272795
  N   -2.776074476   5.821470665  -8.908378859
  C   -3.573387164   5.929146071  -7.747098148
  H   -1.059894255   5.080193162  -9.856342012
  N   -4.710826074   6.635964050  -7.818580520
  H   -5.001150785   7.097017633  -8.682039547
  H   -5.316098167   6.743503633  -7.002960547
  H   -2.903861768   4.170445432  -3.517063330
  P   -1.122734741  -0.936863874  -2.242328670
  O    0.046359263  -2.043895633  -1.993615134
  C   -0.316819038  -3.430742939  -2.170705252
  H   -0.888443061  -3.593432460  -3.105105410
  H    0.688314207  -3.906613234  -2.310876208
  C   -1.053404241  -3.954345981  -0.937431129
  H   -1.090908209  -3.225216048  -0.091965150
  O   -2.451607112  -4.143159608  -1.316924815
  C   -2.786866439  -5.532314197  -1.344611469
  H   -3.839543003  -5.577932152  -0.975235179
  C   -0.530840978  -5.337846779  -0.463593712
  H    0.290594564  -5.740322011  -1.111598260
  C   -1.760486213  -6.261655287  -0.475735822
  H   -1.510979550  -7.280112440  -0.829019064
  H   -2.141009146  -6.395436292   0.562263248
  O   -0.109133131  -5.158796008   0.905132678
  O   -2.529592663  -1.217975023  -2.713517677
  O   -1.185346129  -0.298680447  -0.740306196
  N   -2.770950556  -5.969874700  -2.791356852
  C   -1.554200342  -6.258526500  -3.468945289
  N   -1.655411204  -6.703297097  -4.808655618
  C   -2.885176982  -6.803657192  -5.539847069
  C   -4.072530620  -6.354291723  -4.806493412
  C   -3.991676989  -5.972798536  -3.506541990
  O   -0.450827102  -6.130191134  -2.963762910
  H   -0.772428804  -7.033582497  -5.228400835
  O   -2.811413528  -7.201298847  -6.687107144
  C   -5.357367095  -6.326756030  -5.558544455
  H   -5.768469348  -5.305905747  -5.621853130
  H   -5.236951521  -6.684900499  -6.595115105
  H   -6.124327963  -6.964981045  -5.091892877
  H   -4.879315138  -5.646704123  -2.944790232
  P    1.432854969  -5.658300937   1.199714418
  O    2.262421101  -4.355724707   0.661082847
  C    3.713257303  -4.481100890   0.684054943
  H    4.031031268  -3.749784450   1.462783967
  H    4.061847122  -5.498369800   0.958364342
  C    4.249349711  -4.083666950  -0.691793968
  H    5.301124305  -3.714720935  -0.591201747
  O    4.390962489  -5.290668432  -1.499374543
  C    3.786780766  -5.132062581  -2.789608206
  H    4.616886215  -5.250661875  -3.530168383
  C    3.365160443  -3.085685336  -1.485712564
  H    2.442824710  -2.786851645  -0.926737379
  C    3.077934726  -3.778583413  -2.825678227
  H    1.982117542  -3.887653091  -2.995711288
  H    3.399548074  -3.160373445  -3.689085151
  O    4.026307570  -1.843322563  -1.635475503
  O    1.811908024  -6.952811127   0.607197358
  O    1.519008498  -5.478189171   2.811769494
  N    2.846904152  -6.299250825  -2.985359652
  C    2.219109425  -6.454982090  -4.285051055
  N    1.613455862  -7.664316732  -4.590232942
  C    1.483421575  -8.640991548  -3.630087464
  C    1.995972650  -8.440544716  -2.307623668
  C    2.698014300  -7.295609546  -2.022481978
  O    2.247904656  -5.524064672  -5.085653470
  N    0.818722993  -9.775530965  -4.015445050
  H    0.777541841 -10.586107935  -3.413969777
  H    0.544919037  -9.918245406  -4.987422184
  H    0.682572038  -1.590929906  -4.773542814
  H    3.169652543  -7.124299313  -1.032262083
  H    1.835200002  -9.179638150  -1.520797315
  H    4.822681985  -1.899762815  -2.205685287
  H   -3.551458563  -2.771772973  -3.144295716
  H   -0.349390956  -0.263855142  -0.201977180
  H    1.083161060  -6.159141274   3.397297073
  H    1.472807436  -7.892498884  -6.408119108
  H   -0.273986271   3.875469765  -7.836405144

