%mem=64gb
%nproc=28       
%Chk=snap_4.chk
# opt b3lyp/6-31g(d,p)  scf=(xqc, tight)  pop=min    

tetra snap_4 

2     1 
  O    1.950824693  -4.290177617  -7.811865975
  C    2.078809997  -2.927519628  -8.258017181
  H    2.991028960  -2.953329506  -8.894337867
  H    2.256681446  -2.289516111  -7.362173276
  C    0.873955155  -2.425225184  -9.055283627
  H    0.939168514  -1.316553586  -9.199057608
  O    0.967017336  -2.953442479 -10.420944447
  C   -0.237368948  -3.599300718 -10.804637390
  H   -0.410566744  -3.342773671 -11.879254247
  C   -0.532135484  -2.831056653  -8.538594104
  H   -0.513991750  -3.690616107  -7.817156548
  C   -1.322230642  -3.191878511  -9.802959972
  H   -1.897535738  -2.307491844 -10.161369615
  H   -2.086649412  -3.971311674  -9.624335715
  O   -1.169002057  -1.658496809  -7.967836444
  N    0.030195473  -5.084188330 -10.722851682
  C   -0.472407517  -6.069023177 -11.601065428
  C    0.047967681  -7.314806675 -11.152069831
  N    0.852212326  -7.062983233 -10.020573154
  C    0.832837190  -5.731630524  -9.773076831
  N   -1.305205757  -5.887782367 -12.669538347
  C   -1.627980044  -7.044516685 -13.343471343
  N   -1.149907139  -8.319450408 -12.969866816
  C   -0.263590729  -8.550451555 -11.829032035
  N   -2.477546670  -6.934971557 -14.413787825
  H   -2.801160169  -6.015430901 -14.706558468
  H   -2.718485034  -7.716667706 -15.006082699
  O    0.076073799  -9.681433026 -11.602373920
  H    1.392169543  -5.148812275  -8.904614695
  H   -1.416754844  -9.160403008 -13.503714215
  P   -0.922430735  -1.579234690  -6.342678691
  O   -1.424755585  -0.028906619  -6.072877616
  C   -0.850303859   0.588516327  -4.891855287
  H   -0.487722981   1.573986828  -5.266136886
  H    0.018913869   0.020179370  -4.489619968
  C   -1.935002252   0.792969428  -3.828239859
  H   -1.505140228   0.730305635  -2.792792730
  O   -2.348073982   2.195197826  -3.881758378
  C   -3.686386740   2.322391567  -4.340238650
  H   -4.141935788   3.119835084  -3.707460987
  C   -3.222912520  -0.057838322  -3.997364427
  H   -3.172140419  -0.819192474  -4.814550535
  C   -4.358115890   0.955196128  -4.233804535
  H   -5.054540200   0.917487314  -3.357029240
  H   -4.991845051   0.686411005  -5.098414110
  O   -3.585482576  -0.711209248  -2.770010821
  O    0.451315121  -1.913927754  -5.898497190
  O   -2.152933095  -2.458528838  -5.782380875
  N   -3.601620150   2.822920609  -5.756622111
  C   -3.599500249   4.158704747  -6.157479883
  C   -3.267010939   4.175400645  -7.551218123
  N   -3.036492162   2.862666207  -7.993632448
  C   -3.214232863   2.075472083  -6.933876381
  N   -3.872005572   5.344081290  -5.473101996
  C   -3.785443400   6.534391416  -6.224685544
  N   -3.475454654   6.591560724  -7.507635652
  C   -3.194265013   5.422509127  -8.248063907
  H   -3.999304636   7.485367212  -5.685181978
  N   -2.871136239   5.556956897  -9.544549096
  H   -2.827618769   6.473746636  -9.990691831
  H   -2.663258364   4.741554636 -10.120593637
  H   -3.081696400   0.989818353  -6.901754458
  P   -2.580680816  -1.907346651  -2.215420221
  O   -1.796209963  -0.940105251  -1.150154213
  C   -0.530653545  -1.414456480  -0.632995106
  H    0.192886023  -1.563796175  -1.468666100
  H   -0.200029434  -0.570816526   0.008943984
  C   -0.806895248  -2.686334863   0.165522824
  H   -1.393781183  -2.500342410   1.098938798
  O   -1.713465017  -3.459037424  -0.692387286
  C   -1.165944090  -4.795361512  -0.971874059
  H   -2.025018130  -5.470014584  -0.720788409
  C    0.425365027  -3.571910798   0.449113854
  H    1.374953460  -3.171758979   0.015525045
  C    0.059784006  -4.962618788  -0.080532582
  H    0.918273961  -5.441435143  -0.617226458
  H   -0.154293896  -5.665060095   0.761183766
  O    0.492246908  -3.559967012   1.895875358
  O   -1.728460277  -2.470921635  -3.307141748
  O   -3.760769159  -2.806439779  -1.574333718
  N   -0.871008705  -4.880303139  -2.422973672
  C    0.167333060  -4.086642781  -3.013016051
  N    0.339492857  -4.240447167  -4.411853410
  C   -0.408190834  -5.134784094  -5.223970249
  C   -1.392786636  -5.955023936  -4.533251618
  C   -1.588402125  -5.820342351  -3.192813563
  O    0.884378616  -3.344698745  -2.366826970
  H    0.975276666  -3.545009073  -4.869042855
  O   -0.166540611  -5.118793838  -6.435681673
  C   -2.144947161  -6.964741902  -5.330935373
  H   -1.885930700  -6.915406766  -6.399585757
  H   -1.916852073  -7.989107570  -4.991560341
  H   -3.232301052  -6.822384875  -5.254544807
  H   -2.301507691  -6.457984260  -2.641712648
  P    1.827690757  -4.201882609   2.597541326
  O    1.708115034  -5.739593042   2.015172240
  C    2.588151518  -6.725699961   2.611052833
  H    3.150772525  -6.328622420   3.479708660
  H    1.889645987  -7.510563345   2.976969421
  C    3.529747242  -7.300834583   1.544149240
  H    4.494837398  -7.618010872   2.009069496
  O    2.984036637  -8.566375669   1.069707258
  C    2.381947977  -8.421177431  -0.225591794
  H    2.686496772  -9.337825508  -0.785462136
  C    3.746504944  -6.433259440   0.277471863
  H    3.515010125  -5.349200617   0.419371272
  C    2.881707824  -7.096724402  -0.809654336
  H    2.050393779  -6.418884409  -1.117816607
  H    3.451724191  -7.253663151  -1.746614549
  O    5.120611404  -6.385396468  -0.062281058
  O    2.005707378  -3.983529920   4.026029505
  O    3.016207526  -3.633489975   1.599488308
  N    0.886105878  -8.474931745  -0.007815451
  C   -0.047728151  -7.975345335  -1.026522678
  N   -1.400656444  -7.961426184  -0.718061784
  C   -1.846991316  -8.501220815   0.454650674
  C   -0.947045720  -9.057250269   1.426249460
  C    0.399559082  -9.030287317   1.166535032
  O    0.418758892  -7.556996274  -2.071089240
  N   -3.202430905  -8.432230585   0.692594771
  H   -3.613598255  -8.934937123   1.465512949
  H   -3.832005877  -8.169402511  -0.053599368
  H    1.265514333  -4.347105124  -7.056192680
  H    1.139976995  -9.447646938   1.872838731
  H   -1.323788648  -9.494470361   2.348226128
  H    5.494276503  -7.270219547  -0.268045275
  H   -2.021945657  -2.883583808  -4.812993693
  H   -3.632539795  -3.164538212  -0.636386625
  H    3.782676592  -3.145280440   1.998184001
  H    1.345401369  -7.785620107  -9.505232813
  H   -4.090807250   5.349545496  -4.473372687

