%mem=64gb
%nproc=28       
%Chk=snap_142.chk
# opt b3lyp/6-31g(d,p)  scf=(xqc, tight)  pop=min    

tetra snap_142 

2     1 
  O    1.647221936  -2.661451208  -4.933861629
  C    1.412605034  -3.766470772  -5.796575305
  H    0.907015363  -4.575163238  -5.235131621
  H    2.443244681  -4.113452641  -6.045025982
  C    0.665408710  -3.320829657  -7.059759079
  H    0.920738105  -2.264723657  -7.322644880
  O    1.177012183  -4.100571182  -8.194470670
  C    0.131073763  -4.782861635  -8.872163341
  H    0.364150031  -4.734763740  -9.962746497
  C   -0.866447067  -3.551153861  -7.045296694
  H   -1.204847662  -4.193316289  -6.201385666
  C   -1.197482275  -4.190779757  -8.401716822
  H   -1.569961922  -3.412183125  -9.106887064
  H   -2.031665319  -4.920410539  -8.343004790
  O   -1.503688322  -2.256809376  -7.022974821
  N    0.258100772  -6.230025117  -8.431778641
  C   -0.666720307  -7.277955178  -8.625973120
  C   -0.235181788  -8.352854117  -7.792512117
  N    0.947487985  -7.963560347  -7.152558668
  C    1.228520739  -6.690308141  -7.519406868
  N   -1.757691224  -7.314064152  -9.449247927
  C   -2.485356112  -8.479115607  -9.381912582
  N   -2.155237401  -9.569546318  -8.538033817
  C   -1.026958206  -9.545854898  -7.624943541
  N   -3.603346694  -8.571831263 -10.172306623
  H   -3.816532760  -7.820643138 -10.826391495
  H   -4.140427791  -9.422389827 -10.263234001
  O   -0.880203748 -10.467391173  -6.854797565
  H    2.092228826  -6.093424729  -7.175953745
  H   -2.774778700 -10.390230942  -8.474018172
  P   -2.115516719  -1.843300303  -5.543797964
  O   -3.002787270  -0.529003760  -5.975793816
  C   -2.230590755   0.679945388  -6.169449331
  H   -3.001650064   1.372770316  -6.569836778
  H   -1.451252821   0.530197214  -6.942421465
  C   -1.649873230   1.185646351  -4.840021584
  H   -0.641216680   0.751274844  -4.594989961
  O   -1.361017356   2.609150668  -5.001244272
  C   -2.159121919   3.409044497  -4.123013198
  H   -1.434974351   4.100897163  -3.616722985
  C   -2.646331546   1.051576228  -3.659722843
  H   -3.570840989   0.482622598  -3.924894970
  C   -2.945104003   2.490868993  -3.196639160
  H   -2.592290253   2.593910522  -2.135667516
  H   -4.029951570   2.685871187  -3.149761549
  O   -1.970075187   0.468292683  -2.545009644
  O   -0.993193308  -1.536746632  -4.582191318
  O   -3.120735135  -3.098090822  -5.356579996
  N   -3.023699648   4.236727329  -5.035802700
  C   -2.592138109   4.790585377  -6.237373522
  C   -3.653403808   5.621860016  -6.721412659
  N   -4.730566477   5.566636248  -5.826087749
  C   -4.356186471   4.754293425  -4.836233268
  N   -1.392501290   4.654899845  -6.935320665
  C   -1.280620974   5.406302841  -8.118879677
  N   -2.226746443   6.198816129  -8.597288696
  C   -3.464284175   6.358023756  -7.935582076
  H   -0.323950347   5.324353607  -8.682449681
  N   -4.372321310   7.183358786  -8.478449696
  H   -4.180530819   7.694933210  -9.340947774
  H   -5.277976648   7.336190011  -8.032757715
  H   -4.950105510   4.497139817  -3.962949118
  P   -1.909329272  -1.184935105  -2.427754968
  O   -0.291813570  -1.237059459  -2.307408340
  C    0.326893494  -2.516727447  -2.061925056
  H    0.339014896  -3.089866716  -3.019026674
  H    1.365375522  -2.215253464  -1.794069769
  C   -0.398423549  -3.237535738  -0.930293031
  H   -0.481999467  -2.619872982   0.003021573
  O   -1.783427752  -3.364353212  -1.424735952
  C   -2.209752156  -4.742877303  -1.426196302
  H   -3.243511216  -4.700216880  -1.003345019
  C    0.085593304  -4.666434663  -0.607994349
  H    0.843312094  -5.050253518  -1.351421249
  C   -1.196782427  -5.518193296  -0.582186036
  H   -1.011873560  -6.553469534  -0.933752576
  H   -1.561241416  -5.630171254   0.464673564
  O    0.657750746  -4.575558647   0.705253525
  O   -2.874672610  -1.888549150  -3.357649253
  O   -2.438374269  -1.236262763  -0.876200545
  N   -2.294697572  -5.237355851  -2.837398167
  C   -1.129743263  -5.610970988  -3.569395732
  N   -1.336702129  -6.320518393  -4.776336946
  C   -2.621561830  -6.567241127  -5.369571480
  C   -3.756736940  -5.992889467  -4.624906188
  C   -3.580304695  -5.423141808  -3.407665635
  O    0.004374283  -5.341056085  -3.210770914
  H   -0.494467479  -6.757285862  -5.189082266
  O   -2.638853312  -7.193127777  -6.408134815
  C   -5.075223465  -6.037450500  -5.310320639
  H   -5.930399239  -6.046744653  -4.620738035
  H   -5.193065413  -5.157049727  -5.969349149
  H   -5.174906037  -6.928989100  -5.952731061
  H   -4.426247162  -5.052527475  -2.809490351
  P    1.725396559  -5.778742596   1.110682106
  O    3.073855145  -4.855296130   1.201952564
  C    4.331372504  -5.435081191   0.778861794
  H    5.033136281  -4.978844552   1.516194897
  H    4.353196808  -6.538228045   0.885410357
  C    4.688126646  -5.010914139  -0.649303359
  H    5.770235156  -4.731742209  -0.698889468
  O    4.596419898  -6.191054915  -1.503682394
  C    3.846054323  -5.896913782  -2.696139566
  H    4.581978385  -5.872010998  -3.538879565
  C    3.790715935  -3.907463569  -1.273487299
  H    3.103105822  -3.445098368  -0.523581287
  C    3.092651553  -4.585938871  -2.458482389
  H    2.012570470  -4.784614796  -2.262691929
  H    3.071688926  -3.935613157  -3.363106292
  O    4.566889275  -2.790961692  -1.665601250
  O    1.749372831  -6.965478991   0.245040000
  O    1.318378811  -5.990245192   2.665050721
  N    2.920946046  -7.057494903  -2.934747860
  C    2.297472958  -7.140013318  -4.241451131
  N    1.463768837  -8.212765165  -4.513279478
  C    1.236566781  -9.182693046  -3.562137657
  C    1.849115739  -9.098201382  -2.271889524
  C    2.674586394  -8.037859248  -1.978696818
  O    2.524711459  -6.271054633  -5.077606132
  N    0.379458302 -10.184957090  -3.927054349
  H    0.216381770 -10.982556196  -3.329949495
  H    0.015366905 -10.243071709  -4.877892801
  H    0.793048208  -2.224289231  -4.638838269
  H    3.179808376  -7.926762516  -0.999054635
  H    1.666503396  -9.860702110  -1.514557020
  H    5.174763413  -2.991157642  -2.411203348
  H   -3.352115320  -3.303347739  -4.370863026
  H   -3.112675065  -1.929484873  -0.643530045
  H    1.361613261  -5.194024830   3.275086961
  H    1.379780646  -8.477843396  -6.343355175
  H   -0.669784614   4.006701256  -6.585218916

