%mem=64gb
%nproc=28       
%Chk=snap_140.chk
# opt b3lyp/6-31g(d,p)  scf=(xqc, tight)  pop=min    

tetra snap_140 

2     1 
  O    1.499451958  -2.437136825  -5.203046472
  C    1.391585536  -3.585689690  -6.033271320
  H    1.007125512  -4.440347732  -5.447468250
  H    2.447459908  -3.798109187  -6.313348817
  C    0.555610701  -3.271492684  -7.279716165
  H    0.742235243  -2.227349233  -7.630561013
  O    1.034383805  -4.116861008  -8.381589916
  C   -0.038340059  -4.821164966  -8.999545892
  H    0.147949026  -4.795261321 -10.100038717
  C   -0.960131226  -3.562779193  -7.155062068
  H   -1.214252525  -4.212944690  -6.290311320
  C   -1.347747775  -4.224231211  -8.486252976
  H   -1.748015922  -3.458663871  -9.189200385
  H   -2.175375129  -4.956508843  -8.376582662
  O   -1.630166295  -2.290627814  -7.092412153
  N    0.115596481  -6.256724870  -8.534953975
  C   -0.818448163  -7.307518541  -8.656350871
  C   -0.346742596  -8.364550288  -7.822633183
  N    0.856699461  -7.955074475  -7.238558779
  C    1.119848670  -6.690048506  -7.646892715
  N   -1.944698968  -7.368067023  -9.431541571
  C   -2.675708592  -8.520920780  -9.284483838
  N   -2.318265047  -9.580828845  -8.412428521
  C   -1.134076992  -9.546165976  -7.573120079
  N   -3.835126055  -8.631444539 -10.013106148
  H   -4.064676191  -7.905515157 -10.689930320
  H   -4.358146648  -9.493180123 -10.076384446
  O   -0.939745354 -10.451668659  -6.794499629
  H    1.988864937  -6.077235589  -7.356114699
  H   -2.941850076 -10.390722645  -8.287764127
  P   -2.294082930  -1.930835393  -5.622289080
  O   -3.138159135  -0.585765760  -6.062660383
  C   -2.337897800   0.613374734  -6.196428440
  H   -3.065488968   1.324491974  -6.644567513
  H   -1.507926775   0.458807247  -6.912645359
  C   -1.858374139   1.080304957  -4.813561006
  H   -0.895383419   0.599815501  -4.484078752
  O   -1.493745278   2.491197920  -4.906274517
  C   -2.335280971   3.306908152  -4.081873284
  H   -1.633378699   3.906414896  -3.444166916
  C   -2.976243732   0.963762452  -3.745670096
  H   -3.879900815   0.413063233  -4.107636990
  C   -3.305951322   2.410141391  -3.323962724
  H   -3.160732570   2.498304212  -2.217954926
  H   -4.373202166   2.638260036  -3.492636736
  O   -2.456039948   0.358214024  -2.571219831
  O   -1.216869750  -1.660532049  -4.602584821
  O   -3.344273001  -3.155948754  -5.538352405
  N   -3.003449935   4.253315449  -5.041609648
  C   -2.410113190   4.746430156  -6.199319335
  C   -3.305352385   5.721329505  -6.746554589
  N   -4.439835501   5.819871741  -5.929118035
  C   -4.257443660   4.959929134  -4.925700398
  N   -1.190756229   4.450680228  -6.807899471
  C   -0.886729505   5.184114144  -7.967741545
  N   -1.678163782   6.098468578  -8.506641072
  C   -2.928028505   6.424638489  -7.935802427
  H    0.090400445   4.975388395  -8.458658385
  N   -3.671626096   7.368421938  -8.533219204
  H   -3.349702872   7.847852426  -9.375031129
  H   -4.578516498   7.643143905  -8.153040165
  H   -4.939052493   4.792109628  -4.095615655
  P   -2.285293640  -1.307804987  -2.469066497
  O   -0.674620897  -1.155906451  -2.290976586
  C    0.160770488  -2.281256115  -1.948873856
  H    0.275283203  -2.937240780  -2.837231066
  H    1.133972247  -1.787460905  -1.721478822
  C   -0.471134612  -2.976941043  -0.745621173
  H   -0.595179624  -2.301343849   0.139284927
  O   -1.835844461  -3.244033012  -1.214578191
  C   -2.123658547  -4.651812505  -1.212125611
  H   -3.173813879  -4.696667240  -0.824683888
  C    0.115922900  -4.331019461  -0.300250600
  H    0.967556374  -4.655905718  -0.958444764
  C   -1.071709301  -5.311385800  -0.321749577
  H   -0.767495811  -6.327708139  -0.644058883
  H   -1.475615781  -5.462340192   0.706694599
  O    0.576646067  -4.081234299   1.040590807
  O   -3.117687229  -2.072609419  -3.457031323
  O   -3.006512059  -1.345802761  -0.996792003
  N   -2.113789953  -5.166628929  -2.624521941
  C   -0.907942606  -5.496719183  -3.309995230
  N   -1.050646445  -6.140787876  -4.563204657
  C   -2.306600077  -6.424614546  -5.201007270
  C   -3.490557364  -5.984357175  -4.452935390
  C   -3.367512391  -5.398762562  -3.235661613
  O    0.205365016  -5.250413946  -2.873817921
  H   -0.183132270  -6.516098723  -4.989347362
  O   -2.257412399  -6.968373180  -6.286361292
  C   -4.813951691  -6.212651992  -5.094942447
  H   -5.219018882  -5.284628118  -5.532209689
  H   -4.747665311  -6.940388965  -5.921345860
  H   -5.561320137  -6.604287874  -4.388990427
  H   -4.246992001  -5.067784494  -2.660424057
  P    1.545061112  -5.261275399   1.676110635
  O    3.010542923  -4.903651716   1.022760346
  C    3.543022357  -5.887812081   0.104283650
  H    4.263552441  -6.505101434   0.681977085
  H    2.766844614  -6.550396861  -0.327569385
  C    4.264054587  -5.046303095  -0.959778558
  H    5.147746628  -4.519506748  -0.533154013
  O    4.828877394  -5.997944767  -1.911287904
  C    4.194013569  -5.899687288  -3.186540100
  H    5.024357637  -5.981115571  -3.928579740
  C    3.334986806  -4.100153074  -1.761952036
  H    2.292118039  -4.093137152  -1.355243534
  C    3.383323800  -4.607130064  -3.210196614
  H    2.351192091  -4.740847118  -3.611218176
  H    3.820845079  -3.852970540  -3.895266389
  O    3.688424946  -2.739248680  -1.640277008
  O    1.093346441  -6.645092042   1.447945023
  O    1.677209013  -4.659865695   3.174612615
  N    3.316123817  -7.131245530  -3.348055364
  C    2.394229642  -7.194163381  -4.459011502
  N    1.625754315  -8.333034320  -4.630795666
  C    1.726487784  -9.393473502  -3.761495514
  C    2.649737009  -9.339610524  -2.658778603
  C    3.430093491  -8.223740769  -2.492541331
  O    2.308507342  -6.254359888  -5.247571450
  N    0.923434599 -10.462688689  -4.029443294
  H    0.945302065 -11.303420330  -3.470280007
  H    0.300753532 -10.461889947  -4.838952612
  H    0.605760538  -2.133516750  -4.862591231
  H    4.185508425  -8.147076812  -1.689207156
  H    2.736899520 -10.180968103  -1.970424843
  H    4.588550427  -2.543829905  -1.982671222
  H   -3.701525489  -3.359807179  -4.591860278
  H   -2.709964961  -0.671214280  -0.327454342
  H    1.689758298  -5.309913510   3.937479563
  H    1.334887089  -8.472213765  -6.465689952
  H   -0.583347849   3.721152544  -6.401039561

