%mem=64gb
%nproc=28       
%Chk=snap_152.chk
# opt b3lyp/6-31g(d,p)  scf=(xqc, tight)  pop=min    

tetra snap_152 

2     1 
  O    1.939476804  -2.770882188  -4.692339695
  C    1.555859396  -3.813216327  -5.582178516
  H    1.015864376  -4.598883108  -5.016173401
  H    2.534855549  -4.237992502  -5.908202881
  C    0.771087699  -3.261449901  -6.776759033
  H    1.056546832  -2.201671788  -6.990291181
  O    1.211655807  -3.984386508  -7.976350486
  C    0.121323507  -4.591093136  -8.653335098
  H    0.300974784  -4.449120242  -9.746009415
  C   -0.767499101  -3.440969909  -6.705751826
  H   -1.104413722  -4.080924373  -5.859759614
  C   -1.171957457  -4.021188739  -8.069636204
  H   -1.581044122  -3.209427642  -8.714755355
  H   -2.001060583  -4.753605776  -7.998159191
  O   -1.384774944  -2.138206510  -6.640474242
  N    0.237947053  -6.073100275  -8.358156413
  C   -0.718688832  -7.078123625  -8.618309211
  C   -0.273733311  -8.243226024  -7.928765609
  N    0.948842923  -7.947718515  -7.312573166
  C    1.239662436  -6.644778192  -7.550392266
  N   -1.852912998  -6.997644140  -9.377567415
  C   -2.606576167  -8.149011082  -9.398820057
  N   -2.257444044  -9.335234921  -8.709274475
  C   -1.095066328  -9.427652503  -7.841613196
  N   -3.768698707  -8.123630075 -10.129732846
  H   -3.985426067  -7.302410862 -10.690648517
  H   -4.331710120  -8.946617760 -10.289057420
  O   -0.940166957 -10.421559417  -7.171166182
  H    2.130363059  -6.100434074  -7.183789816
  H   -2.911292191 -10.130045686  -8.672621410
  P   -1.758983232  -1.588943732  -5.129044524
  O   -2.696479818  -0.314918268  -5.574614048
  C   -2.013658130   0.742739370  -6.281220299
  H   -2.868110730   1.377912791  -6.603626297
  H   -1.505010215   0.346827204  -7.184180608
  C   -1.053620785   1.521547090  -5.368625647
  H    0.000696321   1.142175782  -5.403033886
  O   -0.963716855   2.878157789  -5.923222255
  C   -1.304082433   3.861819572  -4.940745734
  H   -0.535296651   4.669370367  -5.052916697
  C   -1.533065426   1.678325511  -3.901682754
  H   -2.583574239   1.320031403  -3.755678180
  C   -1.366181322   3.175509713  -3.584198369
  H   -0.405946470   3.315464827  -3.021949511
  H   -2.138403770   3.549135321  -2.889447991
  O   -0.578588996   1.002880351  -3.065821922
  O   -0.476913884  -1.244196392  -4.384743724
  O   -2.647782147  -2.825759260  -4.582608523
  N   -2.632621887   4.423568224  -5.371180591
  C   -2.978461303   4.738998864  -6.681084395
  C   -4.272066936   5.352148594  -6.636623319
  N   -4.719870857   5.398326913  -5.309078887
  C   -3.756170280   4.849381748  -4.569071456
  N   -2.297879470   4.558372433  -7.884543263
  C   -2.948436737   5.034583084  -9.038268678
  N   -4.136861414   5.615832606  -9.044164671
  C   -4.869982766   5.815018013  -7.852968025
  H   -2.413225907   4.912874626 -10.006605698
  N   -6.063573706   6.422575752  -7.931527082
  H   -6.442601008   6.747237560  -8.822756565
  H   -6.623625410   6.591979272  -7.093455641
  H   -3.770967311   4.723390769  -3.489322120
  P   -1.161842888  -0.373333303  -2.361743330
  O    0.142324059  -1.102332857  -1.739043517
  C    0.371367860  -2.515309401  -1.944063441
  H    0.247584782  -2.800906750  -3.010675562
  H    1.454818634  -2.568546744  -1.672327025
  C   -0.492379140  -3.331230293  -0.983333244
  H   -0.695735113  -2.772722968  -0.035620269
  O   -1.805558486  -3.524151808  -1.602243168
  C   -2.229799192  -4.889280440  -1.512847521
  H   -3.266837822  -4.838683261  -1.096085926
  C    0.042294929  -4.755823080  -0.674636477
  H    0.786633426  -5.113350841  -1.444183018
  C   -1.219294565  -5.635823276  -0.645417316
  H   -1.022991116  -6.676032128  -0.980128319
  H   -1.613402079  -5.771713886   0.390745336
  O    0.728694806  -4.624713255   0.581186530
  O   -2.335855206  -1.019462378  -3.062419269
  O   -1.712050064   0.286078578  -0.964513745
  N   -2.315973445  -5.436066786  -2.913094137
  C   -1.156011753  -5.815106058  -3.642258633
  N   -1.365989861  -6.564520184  -4.824848709
  C   -2.657036692  -6.890552512  -5.365965627
  C   -3.792039694  -6.319891268  -4.628574276
  C   -3.602905643  -5.646533347  -3.467565214
  O   -0.018296161  -5.522988696  -3.305319981
  H   -0.522849070  -6.990617400  -5.244065149
  O   -2.674620351  -7.572100156  -6.370553501
  C   -5.142611345  -6.552236951  -5.209102666
  H   -5.497001107  -7.573516633  -4.984948887
  H   -5.901726406  -5.853114612  -4.830305742
  H   -5.136740124  -6.452945492  -6.306944160
  H   -4.442417137  -5.227702170  -2.893707313
  P    1.175989576  -6.044360010   1.318433185
  O    2.430596586  -6.545971834   0.403711966
  C    3.786587122  -6.133225514   0.723610490
  H    3.839109349  -5.480269941   1.619999280
  H    4.302511919  -7.097331561   0.936405924
  C    4.397415037  -5.450821575  -0.501518557
  H    5.452243936  -5.151556073  -0.271570841
  O    4.556843969  -6.429895532  -1.568650278
  C    3.793787367  -6.073569708  -2.725809548
  H    4.527003422  -6.046239505  -3.571820816
  C    3.581948951  -4.265301882  -1.081606380
  H    2.785875374  -3.908377463  -0.385623113
  C    3.061782282  -4.761648004  -2.436394414
  H    1.954862295  -4.917454658  -2.422604210
  H    3.205885936  -4.007838638  -3.245725626
  O    4.387886686  -3.106387251  -1.196193772
  O    0.101671931  -7.029140895   1.454457338
  O    1.894762324  -5.427172412   2.644978106
  N    2.824625965  -7.197571547  -3.007993191
  C    2.300052639  -7.294521235  -4.357585644
  N    1.430231870  -8.330201746  -4.661608514
  C    1.042766376  -9.225205738  -3.692440188
  C    1.513024415  -9.094230192  -2.344299386
  C    2.407829727  -8.096462860  -2.037957561
  O    2.633390213  -6.459024457  -5.191230265
  N    0.162501180 -10.194564111  -4.091284497
  H   -0.091600902 -10.957450143  -3.480636146
  H   -0.102070338 -10.287793483  -5.071300778
  H    1.161203858  -2.194222015  -4.433732470
  H    2.833735835  -7.973141858  -1.022883006
  H    1.179920795  -9.783873100  -1.569662824
  H    5.095380544  -3.200006816  -1.873580552
  H   -2.765737067  -2.816176207  -3.540599908
  H   -1.071457401   0.393843210  -0.213141581
  H    1.405289354  -5.479201744   3.516351855
  H    1.396607156  -8.545602509  -6.583408331
  H   -1.392788113   4.068445268  -7.890753970

