%mem=64gb
%nproc=28       
%Chk=snap_179.chk
# opt b3lyp/6-31g(d,p)  scf=(xqc, tight)  pop=min    

tetra snap_179 

2     1 
  O    0.583986209  -1.774192310  -5.933244394
  C    0.634133386  -2.823515125  -6.894374198
  H    0.640916744  -3.805615074  -6.374540212
  H    1.617854019  -2.670039925  -7.387972799
  C   -0.513321643  -2.691240650  -7.906940629
  H   -0.618779547  -1.650982908  -8.287742189
  O   -0.100462753  -3.464756738  -9.086849035
  C   -0.991151251  -4.545408096  -9.326251783
  H   -1.024157928  -4.692346889 -10.432929460
  C   -1.876825570  -3.286296008  -7.462756048
  H   -1.807360107  -3.830488074  -6.491308041
  C   -2.301092714  -4.207971011  -8.616472786
  H   -2.995096971  -3.660373354  -9.299986699
  H   -2.890847669  -5.086201611  -8.287228399
  O   -2.860449522  -2.215563759  -7.416395589
  N   -0.316555077  -5.763059732  -8.713546403
  C   -0.890676741  -7.005439462  -8.373103773
  C    0.123790599  -7.742318109  -7.691422624
  N    1.281656499  -6.955482465  -7.631435150
  C    1.011843481  -5.770264119  -8.228642004
  N   -2.161360326  -7.451728043  -8.604585265
  C   -2.428913987  -8.708542825  -8.100619396
  N   -1.485958989  -9.482062617  -7.388632775
  C   -0.131668049  -9.043893011  -7.129145391
  N   -3.689476511  -9.211058120  -8.276063682
  H   -4.362188055  -8.704461070  -8.846330882
  H   -3.950494319 -10.138116652  -7.961352291
  O    0.574569900  -9.756325891  -6.452256540
  H    1.705679084  -4.930915806  -8.356499489
  H   -1.786693701 -10.346406907  -6.867779446
  P   -3.187626567  -1.679819172  -5.893682730
  O   -3.451132072  -0.071444371  -6.018427730
  C   -2.346784096   0.822648142  -6.241709534
  H   -2.840031171   1.809488702  -6.087236042
  H   -2.031003111   0.741072565  -7.302698870
  C   -1.161123593   0.626498378  -5.287907404
  H   -0.509434143  -0.247987914  -5.595399913
  O   -0.289743596   1.783709369  -5.492073877
  C    0.212852937   2.271336484  -4.234067739
  H    1.316897394   2.063794952  -4.241791588
  C   -1.496473238   0.574152820  -3.777554352
  H   -2.578337061   0.753203078  -3.565125864
  C   -0.573629556   1.604220639  -3.107083728
  H    0.113536351   1.075145621  -2.393351084
  H   -1.149771384   2.309073698  -2.477600649
  O   -1.043719639  -0.701035372  -3.268490361
  O   -1.935167768  -2.048464223  -5.099891105
  O   -4.634326945  -2.307312192  -5.610479962
  N    0.018954593   3.755780810  -4.274236780
  C   -0.257114138   4.546760141  -5.381959935
  C   -0.239132551   5.908548117  -4.933587923
  N    0.056315715   5.946457397  -3.563987546
  C    0.213863516   4.681617899  -3.178411972
  N   -0.509905763   4.224745088  -6.714836906
  C   -0.730748082   5.311025122  -7.583042332
  N   -0.730171981   6.580058251  -7.212183603
  C   -0.479363166   6.961058398  -5.874749374
  H   -0.924612274   5.072235691  -8.653163417
  N   -0.477415095   8.268403415  -5.575070982
  H   -0.650777855   8.981243036  -6.285764225
  H   -0.293964111   8.589790008  -4.623097457
  H    0.471560848   4.334932131  -2.180721609
  P   -2.238818074  -1.801884326  -2.948511640
  O   -1.487324086  -3.256534717  -3.092109667
  C   -2.361508584  -4.401619031  -2.918777681
  H   -3.395472046  -4.226075659  -3.270299471
  H   -1.890285489  -5.171292591  -3.571696492
  C   -2.298870168  -4.785988085  -1.431926961
  H   -2.778703053  -4.035678028  -0.756836351
  O   -3.105520094  -5.974183727  -1.260374688
  C   -2.316182800  -7.074601051  -0.775022863
  H   -2.926130799  -7.509702304   0.056390523
  C   -0.856853177  -5.129957289  -0.980018034
  H   -0.124971564  -5.092831562  -1.833747029
  C   -0.958775666  -6.520223725  -0.334148258
  H   -0.098486064  -7.164070600  -0.630417102
  H   -0.908591254  -6.475172591   0.775052228
  O   -0.513995036  -4.070322582  -0.054767803
  O   -3.577010747  -1.526610021  -3.580543868
  O   -2.270044599  -1.682275717  -1.319590807
  N   -2.248874931  -8.081739268  -1.885371395
  C   -1.334089008  -7.936366145  -2.967296670
  N   -1.412913407  -8.914157372  -3.989735906
  C   -2.440684527  -9.912022796  -4.091919512
  C   -3.359765283  -9.966046992  -2.947789540
  C   -3.249004783  -9.085696217  -1.922496921
  O   -0.512428531  -7.037054859  -3.033903147
  H   -0.632979563  -8.917552342  -4.665284520
  O   -2.478973312 -10.581045319  -5.109677251
  C   -4.385468990 -11.044175682  -2.979677716
  H   -4.981217407 -11.009751301  -3.907075392
  H   -3.912868591 -12.042578636  -2.949799126
  H   -5.094426826 -11.000539834  -2.140977856
  H   -3.930516360  -9.111529782  -1.058711189
  P    0.987026692  -4.197362563   0.644137497
  O    1.489517010  -2.661378864   0.366773342
  C    2.869192221  -2.505163221  -0.070893528
  H    3.196021633  -1.618935453   0.516820620
  H    3.507858691  -3.377366400   0.191728908
  C    2.922883738  -2.231584663  -1.577064461
  H    3.674801616  -1.437842803  -1.817146680
  O    3.444964823  -3.434116205  -2.220002863
  C    2.635229689  -3.761047822  -3.373454375
  H    3.179745782  -3.382463530  -4.276332008
  C    1.556609753  -1.912762757  -2.229918828
  H    0.758830869  -1.690851453  -1.489481620
  C    1.267776126  -3.105926317  -3.142294391
  H    0.539236409  -3.818810433  -2.693343771
  H    0.793891231  -2.803254345  -4.103278581
  O    1.764258217  -0.697708554  -2.975957341
  O    1.832121421  -5.310318820   0.199232348
  O    0.581537833  -4.161728805   2.213290927
  N    2.557304369  -5.250918958  -3.458032649
  C    2.248164312  -5.827217275  -4.757772075
  N    2.195134647  -7.198940764  -4.890713004
  C    2.401073056  -8.002870604  -3.796057111
  C    2.741256195  -7.445368954  -2.515866771
  C    2.812026493  -6.083111416  -2.370848971
  O    2.049029951  -5.068778851  -5.706396275
  N    2.211417335  -9.346291420  -3.992071975
  H    2.502059621 -10.023174950  -3.302943120
  H    2.011019426  -9.701689774  -4.928067411
  H   -0.185364950  -1.915877820  -5.290431269
  H    3.071006767  -5.595792204  -1.407325676
  H    2.938644982  -8.091795083  -1.661864594
  H    1.139449100  -0.675645754  -3.733915206
  H   -5.036231919  -2.086991645  -4.676415457
  H   -1.558387302  -2.157927060  -0.793516059
  H    0.160751256  -3.336977182   2.585312953
  H    2.067525687  -7.173092700  -6.985348859
  H   -0.473890848   3.237632231  -7.009367597

