%mem=64gb
%nproc=28       
%Chk=snap_124.chk
# opt b3lyp/6-31g(d,p)  scf=(xqc, tight)  pop=min    

tetra snap_124 

2     1 
  O    2.809594180  -4.850275268  -7.409702750
  C    2.540900272  -3.596144682  -8.039870711
  H    3.109277212  -3.692974925  -8.996261884
  H    2.975393571  -2.781567518  -7.429642327
  C    1.064558950  -3.328843425  -8.334309514
  H    0.942088809  -2.307088102  -8.777784386
  O    0.660688257  -4.240847568  -9.413170547
  C   -0.589725947  -4.851206469  -9.124913329
  H   -1.165230652  -4.880822505 -10.080747213
  C    0.030642160  -3.534143481  -7.196063673
  H    0.396660886  -4.213791311  -6.392949704
  C   -1.197264098  -4.094495028  -7.940413202
  H   -1.863663083  -3.275353718  -8.285063087
  H   -1.851882858  -4.722027251  -7.294064221
  O   -0.193040354  -2.220304941  -6.663455971
  N   -0.312636122  -6.281496733  -8.713291778
  C   -1.285827394  -7.304064460  -8.644026937
  C   -0.754726109  -8.316139082  -7.793174723
  N    0.519034225  -7.900496688  -7.368681969
  C    0.772168345  -6.685839342  -7.914542756
  N   -2.488228384  -7.367025565  -9.294497383
  C   -3.226153148  -8.487579447  -9.014282139
  N   -2.800917200  -9.510467346  -8.133188538
  C   -1.531112486  -9.470509566  -7.418567129
  N   -4.465954364  -8.593198841  -9.605841965
  H   -4.730536243  -7.903646433 -10.307511067
  H   -4.987203575  -9.457779357  -9.609958136
  O   -1.281966475 -10.358567363  -6.639828983
  H    1.724102549  -6.062439622  -7.817539853
  H   -3.420885712 -10.300313244  -7.908288601
  P   -1.028839603  -2.103649820  -5.230121437
  O   -1.875927032  -0.732605561  -5.615160563
  C   -1.338422418   0.511343051  -5.144198922
  H   -1.670371133   1.226450640  -5.927079699
  H   -0.232632688   0.514210685  -5.099193825
  C   -1.970570382   0.832169455  -3.777058492
  H   -1.359666730   0.461425399  -2.915472389
  O   -1.916315773   2.280268652  -3.586855171
  C   -3.220844147   2.864273669  -3.644546023
  H   -3.246743850   3.606729508  -2.804941575
  C   -3.466176897   0.425376973  -3.711263363
  H   -3.783771554  -0.193276285  -4.588985783
  C   -4.252228781   1.743887113  -3.584048537
  H   -4.789661426   1.740859082  -2.599678520
  H   -5.057940402   1.807048828  -4.336404859
  O   -3.795402951  -0.277484549  -2.504114133
  O   -0.092586714  -1.993624360  -4.089192099
  O   -2.076296460  -3.312569690  -5.498659816
  N   -3.253022810   3.625784754  -4.943285268
  C   -2.138754944   4.147534821  -5.591808962
  C   -2.616548278   4.846913096  -6.746528755
  N   -4.014079035   4.753685153  -6.800884479
  C   -4.385818592   4.038965944  -5.737795392
  N   -0.779195439   4.085721519  -5.286224471
  C    0.081305992   4.774842525  -6.158800969
  N   -0.313273310   5.432525520  -7.237352189
  C   -1.676523974   5.512337895  -7.598369447
  H    1.168052144   4.756171980  -5.918080086
  N   -2.002004228   6.196872761  -8.705181406
  H   -1.292995739   6.662079077  -9.273927513
  H   -2.975726227   6.289696565  -8.998870522
  H   -5.406495144   3.791896086  -5.455489112
  P   -3.030214408  -1.718624148  -2.216867942
  O   -1.915563160  -1.065044426  -1.217625076
  C   -0.733395406  -1.871341398  -0.964144116
  H   -0.252838544  -2.168074282  -1.928783424
  H   -0.060986332  -1.171561942  -0.423276549
  C   -1.200808083  -3.033159951  -0.097518397
  H   -1.523357834  -2.712952584   0.922377764
  O   -2.429127558  -3.477762546  -0.774998744
  C   -2.445280082  -4.937488951  -0.928592842
  H   -3.450736497  -5.216009880  -0.522393432
  C   -0.285697572  -4.269585781  -0.034284721
  H    0.464847058  -4.279161339  -0.878340159
  C   -1.265531539  -5.456944646  -0.115126029
  H   -0.779794226  -6.365338350  -0.537049715
  H   -1.585408390  -5.770019277   0.904140294
  O    0.373871912  -4.197583776   1.233653647
  O   -2.524584563  -2.339318255  -3.480800527
  O   -4.302616374  -2.448959786  -1.522709457
  N   -2.405169446  -5.257876790  -2.380595088
  C   -1.179618006  -5.532596354  -3.077333485
  N   -1.305232515  -6.012881832  -4.396403957
  C   -2.540800733  -6.161738649  -5.102704242
  C   -3.734845519  -5.733541799  -4.354871726
  C   -3.642183372  -5.308067039  -3.071246234
  O   -0.084886438  -5.391787870  -2.561443130
  H   -0.416240558  -6.267520401  -4.887742177
  O   -2.486922487  -6.591874474  -6.238089064
  C   -5.031031109  -5.799283060  -5.083758299
  H   -5.695925564  -6.569221133  -4.660852006
  H   -5.573608902  -4.843271105  -5.062454501
  H   -4.886642015  -6.059716523  -6.147650709
  H   -4.525337949  -4.972964739  -2.504659920
  P    1.707232696  -5.188285267   1.358346135
  O    2.807062845  -4.280617341   0.525050554
  C    3.480265104  -4.949865799  -0.566179798
  H    4.485649436  -5.233464533  -0.184245144
  H    2.947007580  -5.863496326  -0.904215931
  C    3.609134869  -3.901355781  -1.681405402
  H    4.204564198  -3.012932124  -1.365473548
  O    4.421469615  -4.560084531  -2.712890230
  C    3.677092413  -4.748533007  -3.916133826
  H    4.421336275  -4.617059716  -4.738107767
  C    2.291448258  -3.489088894  -2.372577519
  H    1.402696621  -4.050407030  -1.975610816
  C    2.516495711  -3.761352449  -3.870290587
  H    1.575870706  -4.118708362  -4.338316513
  H    2.773273869  -2.823128843  -4.402734756
  O    2.080932426  -2.102241574  -2.114937412
  O    1.533646486  -6.567493046   0.898528746
  O    2.104707324  -4.887853053   2.896465144
  N    3.220220147  -6.200940592  -3.931880975
  C    2.072934467  -6.638786961  -4.685680354
  N    1.692623013  -7.959290179  -4.666039408
  C    2.368098158  -8.863596910  -3.877159073
  C    3.525506396  -8.451260172  -3.124377870
  C    3.925644446  -7.143377995  -3.177685974
  O    1.454850412  -5.821118863  -5.391194408
  N    1.903752551 -10.144259397  -3.895176144
  H    2.314545475 -10.869407458  -3.323390940
  H    1.070087308 -10.390235654  -4.422648570
  H    2.492049843  -4.881208299  -6.463693452
  H    4.819113643  -6.775220606  -2.639684190
  H    4.078942156  -9.174977353  -2.523912569
  H    1.404753830  -1.746231967  -2.761777685
  H   -2.710315663  -3.534733740  -4.710246253
  H   -4.311375813  -2.510625437  -0.515818078
  H    2.325632363  -3.940412781   3.145518775
  H    1.058055065  -8.365587998  -6.628263683
  H   -0.470968706   3.563277918  -4.450184266

