%mem=64gb
%nproc=28       
%Chk=snap_53.chk
# opt b3lyp/6-31g(d,p)  scf=(xqc, tight)  pop=min    

tetra snap_53 

2     1 
  O    0.860816083  -4.509384252  -5.660780176
  C    1.363410166  -4.184624105  -6.954550457
  H    1.628156732  -5.171993653  -7.388239454
  H    2.285630262  -3.582285449  -6.854115989
  C    0.314402591  -3.467745958  -7.824572000
  H    0.599868283  -2.422518042  -8.079176706
  O    0.305959491  -4.149709461  -9.117660416
  C   -0.931780035  -4.828612344  -9.320911778
  H   -1.081207633  -4.857854675 -10.428295557
  C   -1.141608167  -3.546508436  -7.289809012
  H   -1.223092191  -4.225763973  -6.410435194
  C   -1.966431236  -4.091331079  -8.470917955
  H   -2.414727812  -3.243594113  -9.039313848
  H   -2.834705051  -4.697631548  -8.148610490
  O   -1.581875789  -2.213604077  -6.986541059
  N   -0.712800002  -6.248187172  -8.848368343
  C    0.142564088  -7.173569090  -9.492028635
  C    0.450313227  -8.187222796  -8.534510396
  N   -0.200370586  -7.864768380  -7.333074229
  C   -0.881728527  -6.715351869  -7.523330782
  N    0.575734248  -7.143841239 -10.785256350
  C    1.381761819  -8.200194953 -11.146369309
  N    1.740017622  -9.240863926 -10.262764907
  C    1.292980228  -9.310428772  -8.868515511
  N    1.861482512  -8.213287068 -12.430093990
  H    1.599304615  -7.467210140 -13.071679451
  H    2.432978082  -8.959773564 -12.797103462
  O    1.665095247 -10.247729811  -8.215005964
  H   -1.557240285  -6.233650363  -6.778484235
  H    2.343138490 -10.015714044 -10.577235439
  P   -1.685645528  -1.900464204  -5.355741853
  O   -1.991311519  -0.278661419  -5.484316619
  C   -0.881829571   0.569603836  -5.104531834
  H   -0.757767553   1.263536362  -5.965755414
  H    0.066397597   0.005054890  -4.960355476
  C   -1.270208536   1.335637317  -3.833706881
  H   -0.480799903   1.269002620  -3.042011007
  O   -1.267537046   2.759690156  -4.171791615
  C   -2.551185397   3.336078718  -3.985785448
  H   -2.363251858   4.335038734  -3.530434036
  C   -2.684047395   1.011530416  -3.276454962
  H   -3.269192320   0.302571607  -3.913999751
  C   -3.387510558   2.372099955  -3.144487950
  H   -3.393556850   2.671607104  -2.067124193
  H   -4.455351714   2.329109785  -3.428014200
  O   -2.577889030   0.496598457  -1.942730317
  O   -0.425218114  -2.269107133  -4.657576464
  O   -3.132219049  -2.596328459  -5.133052900
  N   -3.138968739   3.527982551  -5.358732020
  C   -3.311579191   4.728802137  -6.042977605
  C   -3.792607868   4.394918727  -7.351747427
  N   -3.885637703   3.000559770  -7.475722435
  C   -3.489667577   2.494297970  -6.309129272
  N   -3.129921240   6.061144385  -5.667332602
  C   -3.435813810   7.033247863  -6.643643406
  N   -3.881299747   6.765073063  -7.857196010
  C   -4.087051497   5.435831727  -8.288624174
  H   -3.289119636   8.098890046  -6.353899022
  N   -4.540276123   5.239881675  -9.536370605
  H   -4.734168003   6.023630653 -10.161471513
  H   -4.707054885   4.299010034  -9.894405206
  H   -3.412442191   1.431668081  -6.058101519
  P   -2.115085246  -1.097365414  -1.830045839
  O   -0.579576428  -0.741996384  -1.412527730
  C    0.388135605  -1.829781633  -1.421625176
  H    0.366000224  -2.371119894  -2.399157755
  H    1.353643243  -1.296331672  -1.311200078
  C    0.021596549  -2.684341659  -0.209566482
  H    0.122584429  -2.136069569   0.758006585
  O   -1.429916852  -2.852745126  -0.402449989
  C   -1.787899232  -4.262665327  -0.489801393
  H   -2.726326984  -4.324182828   0.113979999
  C    0.624134579  -4.099654452  -0.116223766
  H    1.247677579  -4.358844154  -1.010070131
  C   -0.595454596  -5.024844256   0.076668202
  H   -0.441917118  -6.021436989  -0.392608038
  H   -0.748199825  -5.253155852   1.155160882
  O    1.459384231  -4.089764649   1.061729843
  O   -2.320387402  -1.826243158  -3.121695542
  O   -3.185294894  -1.483534667  -0.671584791
  N   -2.090958137  -4.597588098  -1.909505095
  C   -1.044699135  -4.832824494  -2.855244029
  N   -1.431852652  -5.275690893  -4.133032861
  C   -2.782765195  -5.461287805  -4.562717182
  C   -3.798478660  -5.104559069  -3.559465712
  C   -3.444455102  -4.691811334  -2.316578987
  O    0.136886353  -4.698835976  -2.582955173
  H   -0.638906793  -5.519662107  -4.775477668
  O   -2.946500024  -5.846072998  -5.708056075
  C   -5.214169980  -5.212620952  -4.002832288
  H   -5.402381057  -4.577057027  -4.887010748
  H   -5.454857280  -6.245407169  -4.310830481
  H   -5.940142446  -4.926595870  -3.230971754
  H   -4.191505148  -4.407960466  -1.562000392
  P    2.420735003  -5.432258488   1.176525221
  O    3.520947441  -5.115689576   0.014020702
  C    4.491245311  -6.176688591  -0.231656852
  H    5.459574949  -5.722224920   0.082853703
  H    4.296322984  -7.098071995   0.356390424
  C    4.495857011  -6.495365810  -1.726956063
  H    5.506071955  -6.879650913  -2.017972241
  O    3.608569262  -7.631368096  -1.950901977
  C    2.782762212  -7.408972118  -3.108831354
  H    3.143180288  -8.119510673  -3.895179619
  C    4.038699326  -5.348334552  -2.669430504
  H    3.789090326  -4.411891118  -2.115660697
  C    2.870193203  -5.925755305  -3.474364545
  H    1.920076381  -5.383514105  -3.257239161
  H    2.984301823  -5.770506115  -4.566338504
  O    5.114026603  -4.928140639  -3.493749935
  O    1.704636746  -6.717566096   1.070630876
  O    3.235405747  -5.117996217   2.545000719
  N    1.383206649  -7.817444658  -2.737056218
  C    0.430415483  -7.979377890  -3.831155888
  N   -0.880968263  -8.283151363  -3.538313312
  C   -1.258000613  -8.473200630  -2.235947039
  C   -0.322619133  -8.367896020  -1.156827684
  C    0.987682200  -8.041975883  -1.430138775
  O    0.850655423  -7.808650983  -4.975330704
  N   -2.608326243  -8.676187019  -2.012205806
  H   -2.910277021  -9.086069906  -1.138980215
  H   -3.204786919  -8.879567919  -2.809532299
  H    0.728617790  -3.672681666  -5.103509941
  H    1.754214474  -7.944975568  -0.629525615
  H   -0.620615592  -8.572552571  -0.128611764
  H    5.415782349  -5.629123734  -4.110756322
  H   -3.429370739  -2.716423893  -4.152834713
  H   -2.869123338  -1.495454170   0.283557724
  H    2.848950489  -5.422672907   3.413798044
  H   -0.040515785  -8.337392693  -6.407136524
  H   -2.765507306   6.316205672  -4.746186664

