%mem=64gb
%nproc=28       
%Chk=snap_143.chk
# opt b3lyp/6-31g(d,p)  scf=(xqc, tight)  pop=min    

tetra snap_143 

2     1 
  O    1.973731210  -4.379015588  -5.164525500
  C    2.470412159  -3.712849174  -6.341423840
  H    3.055883145  -4.418220163  -6.963395494
  H    3.120517523  -2.879157360  -6.011349302
  C    1.244050184  -3.202369816  -7.108709494
  H    1.451848845  -2.235246091  -7.631141608
  O    0.962405444  -4.108943970  -8.215215231
  C   -0.202717174  -4.888824502  -7.965638222
  H   -0.739176831  -4.957752553  -8.948262880
  C   -0.050543394  -3.132577487  -6.263102529
  H    0.147303117  -3.212678752  -5.163152290
  C   -0.971791550  -4.238855750  -6.813630667
  H   -1.924264776  -3.801203285  -7.195568454
  H   -1.289411224  -4.947837543  -6.024555898
  O   -0.594793870  -1.833310497  -6.602034886
  N    0.303753055  -6.272070436  -7.636971039
  C    0.554832203  -7.272510545  -8.605384719
  C    1.455162171  -8.206091945  -8.008929483
  N    1.736626405  -7.766354650  -6.703935637
  C    1.066920711  -6.613493461  -6.495608247
  N    0.037068711  -7.369253735  -9.863581137
  C    0.453620963  -8.469370784 -10.579065493
  N    1.378010183  -9.418892752 -10.075591699
  C    1.953000008  -9.337718346  -8.744827446
  N   -0.049224272  -8.632582511 -11.839857033
  H   -0.712809856  -7.952090312 -12.208452379
  H    0.208188085  -9.398804575 -12.446507427
  O    2.762635051 -10.180315336  -8.427305851
  H    1.101165748  -5.984905427  -5.572906490
  H    1.685486094 -10.216301690 -10.653771928
  P   -1.567681726  -1.158716126  -5.458830536
  O   -1.553001272   0.442358642  -5.906062936
  C   -0.385505539   1.191647570  -5.496834347
  H   -0.236052552   1.907995092  -6.340437346
  H    0.513802090   0.548355918  -5.422334100
  C   -0.649185900   1.954181140  -4.191753659
  H    0.177522073   1.805005433  -3.452484178
  O   -0.577731354   3.370073152  -4.551974896
  C   -1.701060487   4.096074826  -4.053502162
  H   -1.272742614   5.022146344  -3.590730918
  C   -2.032476723   1.760184299  -3.515627309
  H   -2.791349610   1.298569402  -4.208486501
  C   -2.467933630   3.173608178  -3.106197898
  H   -2.184745498   3.357897135  -2.040050787
  H   -3.565259026   3.311040876  -3.122719431
  O   -1.851237809   0.988254774  -2.323015389
  O   -0.964898615  -1.420118621  -4.106388844
  O   -2.980669192  -1.619981837  -6.056494193
  N   -2.518199435   4.525236716  -5.235576706
  C   -3.219695286   3.778835730  -6.181383516
  C   -3.792602249   4.716959742  -7.104203443
  N   -3.430468787   6.021761697  -6.738557985
  C   -2.677903856   5.905939927  -5.647937807
  N   -3.450106914   2.413759148  -6.337090319
  C   -4.233678180   2.023352294  -7.437004144
  N   -4.786926733   2.856709735  -8.304578989
  C   -4.591500341   4.249121535  -8.195721896
  H   -4.400877989   0.928261849  -7.562289565
  N   -5.158576628   5.044802113  -9.117916554
  H   -5.721108280   4.662943057  -9.877477844
  H   -5.044485279   6.057908106  -9.079381929
  H   -2.220564446   6.722205701  -5.091947902
  P   -2.399961768  -0.567655064  -2.460675126
  O   -1.186355360  -1.341385901  -1.708028491
  C   -1.054143700  -2.767333975  -1.908950667
  H   -1.557165157  -3.128501942  -2.825472714
  H    0.042785680  -2.893187757  -2.055381601
  C   -1.521487429  -3.466714324  -0.626607881
  H   -0.983417370  -3.095556403   0.281975152
  O   -2.906585065  -3.143954715  -0.329518774
  C   -3.778353094  -4.268639389  -0.580446163
  H   -4.508876758  -4.245591455   0.266836005
  C   -1.449622091  -5.012882147  -0.757180442
  H   -0.970285697  -5.361399262  -1.701930260
  C   -2.898924083  -5.514690196  -0.622895447
  H   -3.164630923  -6.211467010  -1.448315241
  H   -3.036372375  -6.119283595   0.303867505
  O   -0.627665617  -5.364652527   0.363249651
  O   -3.083057749  -0.743980578  -3.806401136
  O   -3.561633219  -0.676554833  -1.328880086
  N   -4.504779860  -3.936722155  -1.852231653
  C   -3.873839816  -4.096272416  -3.121859643
  N   -4.369166046  -3.285179470  -4.170308060
  C   -5.304293590  -2.211924860  -3.996546551
  C   -6.052351091  -2.263276238  -2.734430685
  C   -5.624357374  -3.063618626  -1.727693452
  O   -2.948207784  -4.862436653  -3.335909475
  H   -3.868730885  -3.336768035  -5.076568627
  O   -5.371716397  -1.387751712  -4.903285916
  C   -7.230342670  -1.364571950  -2.613798683
  H   -6.907557591  -0.330768685  -2.398684024
  H   -7.817716208  -1.329233329  -3.546948694
  H   -7.924128642  -1.664669633  -1.815197135
  H   -6.126741510  -3.084385541  -0.749847083
  P   -0.029682328  -6.902485805   0.482041729
  O    0.737270212  -6.919023035  -0.996981754
  C    1.904668125  -7.748041966  -1.142567496
  H    1.769128764  -8.747937505  -0.688356165
  H    1.987954567  -7.859570676  -2.246320290
  C    3.108627465  -6.987078533  -0.560478025
  H    3.185814195  -7.065281124   0.555273299
  O    4.320865545  -7.634428313  -1.022752491
  C    5.127047407  -6.745805391  -1.803184206
  H    6.149255934  -6.811670630  -1.352449498
  C    3.153478168  -5.515019047  -1.038807536
  H    2.296415539  -5.244526255  -1.695691881
  C    4.514704289  -5.343849342  -1.737950855
  H    4.406068795  -4.880806874  -2.735474808
  H    5.169185920  -4.662943490  -1.155216629
  O    3.064046325  -4.754530205   0.176299728
  O   -0.941903960  -8.004569198   0.738461420
  O    1.149770835  -6.580569432   1.555396424
  N    5.185745022  -7.358831624  -3.180710111
  C    4.066456947  -7.315732041  -4.102920845
  N    4.051568413  -8.177179996  -5.188799074
  C    5.088953907  -9.051682764  -5.411094680
  C    6.238607613  -9.055858473  -4.538812960
  C    6.236079621  -8.252255538  -3.435892415
  O    3.157740538  -6.509189671  -3.925659194
  N    4.981182059  -9.894885632  -6.473175016
  H    5.692622141 -10.582399668  -6.682847651
  H    4.142223799  -9.911951846  -7.058082397
  H    2.690317915  -4.922019860  -4.723218567
  H    7.066878663  -8.267810733  -2.710956023
  H    7.086479749  -9.710036175  -4.747375180
  H    2.997123999  -3.793690079  -0.000193940
  H   -3.879791117  -1.237110442  -5.585816085
  H   -3.426725398  -1.385354559  -0.605283526
  H    1.681864590  -5.723290685   1.404243349
  H    2.466001190  -8.197798202  -6.062622317
  H   -2.946891491   1.696231676  -5.763591602

