%mem=64gb
%nproc=28       
%Chk=snap_92.chk
# opt b3lyp/6-31g(d,p)  scf=(xqc, tight)  pop=min    

tetra snap_92 

2     1 
  O    2.636535558  -4.412499669  -6.952916057
  C    2.954420429  -3.023021333  -6.946062498
  H    3.875932201  -2.968348018  -7.564092713
  H    3.183168938  -2.684719558  -5.914452506
  C    1.845960374  -2.160505075  -7.562856067
  H    2.044815804  -1.074401768  -7.408335303
  O    1.908653767  -2.295606919  -9.024629185
  C    0.745878657  -2.954933669  -9.511323600
  H    0.591034917  -2.584012464 -10.552928298
  C    0.398195833  -2.553814719  -7.159595831
  H    0.354535776  -3.500184217  -6.562986799
  C   -0.358399077  -2.680650148  -8.494297158
  H   -0.892428166  -1.738326745  -8.735320623
  H   -1.166518844  -3.443524130  -8.460491769
  O   -0.222772530  -1.467444821  -6.455313413
  N    1.120249763  -4.422239288  -9.595376563
  C    0.442439961  -5.548359217  -9.071914482
  C    1.357858691  -6.641761436  -9.133499333
  N    2.568317809  -6.166941924  -9.658834189
  C    2.431549181  -4.839333715  -9.907421070
  N   -0.828772426  -5.616688910  -8.590512900
  C   -1.201745805  -6.845619003  -8.088289749
  N   -0.361357641  -7.975778014  -8.125337462
  C    1.008862527  -7.946465559  -8.612387675
  N   -2.489816231  -6.977484633  -7.616877091
  H   -3.078469541  -6.145058826  -7.631516462
  H   -2.685308282  -7.592267657  -6.820770308
  O    1.674422555  -8.945953002  -8.520390656
  H    3.198228726  -4.155805807 -10.285448416
  H   -0.667850481  -8.850967290  -7.673684603
  P   -0.016860319  -1.446299505  -4.785886278
  O    0.209037811   0.192619369  -4.838515352
  C    0.537586236   0.935177552  -3.641946032
  H    1.240764338   1.712445803  -4.027956713
  H    1.066973029   0.299534842  -2.898583776
  C   -0.708553454   1.595097047  -3.045755815
  H   -0.591657183   1.710451663  -1.936359183
  O   -0.722527346   2.965295954  -3.564186921
  C   -2.064943403   3.422972323  -3.770037806
  H   -2.178953174   4.350734837  -3.153581546
  C   -2.110865305   1.025315222  -3.398260017
  H   -2.158571179   0.477617594  -4.371297696
  C   -3.010491015   2.269387454  -3.417416857
  H   -3.479658533   2.409371357  -2.412063742
  H   -3.875556103   2.166424146  -4.099342211
  O   -2.625318905   0.183286253  -2.349824312
  O    1.025255231  -2.389379142  -4.366684701
  O   -1.677517591  -1.497913582  -4.540965751
  N   -2.158490330   3.818165320  -5.209834999
  C   -1.753365256   3.123372502  -6.345716567
  C   -2.073248267   3.948746288  -7.474428120
  N   -2.654364394   5.145934399  -7.030066534
  C   -2.696994214   5.071171366  -5.702194240
  N   -1.163204420   1.877650645  -6.527788115
  C   -0.881105322   1.497712644  -7.846227466
  N   -1.168382273   2.219446996  -8.921612418
  C   -1.771357955   3.489602959  -8.796304940
  H   -0.389053895   0.504342990  -7.969538258
  N   -2.030197145   4.188024606  -9.914832519
  H   -1.793366571   3.826943325 -10.837180989
  H   -2.457705995   5.114172571  -9.868191829
  H   -3.080880081   5.831541597  -5.024366254
  P   -1.893690598  -1.275014527  -2.205305469
  O   -1.927044522  -1.441584164  -0.589469540
  C   -1.157544651  -2.595752651  -0.141762078
  H   -0.482043928  -3.002195635  -0.925609871
  H   -0.519823527  -2.170777222   0.677126394
  C   -2.110189055  -3.640481409   0.429274400
  H   -2.535806108  -3.314136146   1.407586169
  O   -3.279491778  -3.810235235  -0.454314565
  C   -3.737986219  -5.181732417  -0.388039647
  H   -4.776106952  -5.114497512   0.021882210
  C   -1.493232354  -5.067547915   0.480894255
  H   -0.858877104  -5.265364967  -0.428091364
  C   -2.741280266  -5.966719720   0.469195753
  H   -2.531674380  -6.987094553   0.105662000
  H   -3.107550188  -6.116075383   1.511511744
  O   -0.781266429  -5.291763347   1.688802619
  O   -0.446883852  -1.290663397  -2.707509100
  O   -2.915011143  -2.398686861  -2.769176505
  N   -3.814094985  -5.685182622  -1.804049600
  C   -2.653668285  -5.768906419  -2.629999617
  N   -2.810781106  -6.453408454  -3.852219026
  C   -3.977527001  -7.179270511  -4.248249383
  C   -5.132783271  -7.020939285  -3.359335780
  C   -5.022916864  -6.307320175  -2.209363541
  O   -1.580191570  -5.267787170  -2.328031414
  H   -1.971226569  -6.526022244  -4.475583772
  O   -3.878027984  -7.847335634  -5.266830735
  C   -6.397229483  -7.691965159  -3.764888077
  H   -7.275217133  -7.033296970  -3.677381214
  H   -6.367867973  -8.038325484  -4.813714269
  H   -6.597803279  -8.587824767  -3.152391017
  H   -5.878039537  -6.182846205  -1.526900981
  P    0.875077449  -5.139388219   1.622756305
  O    1.445189791  -6.399600425   0.728271725
  C    1.226715088  -6.558301363  -0.676322718
  H    1.391465294  -7.653846841  -0.811352366
  H    0.183048121  -6.307564506  -0.967479494
  C    2.277054755  -5.767594849  -1.465856186
  H    3.108109367  -5.409765850  -0.809570049
  O    2.938102619  -6.711019165  -2.368645368
  C    2.817395496  -6.290639134  -3.735928791
  H    3.787165843  -6.557990106  -4.218744036
  C    1.707126176  -4.646687194  -2.369983141
  H    0.602397377  -4.699574510  -2.517885830
  C    2.470668738  -4.810722758  -3.694807614
  H    1.880946571  -4.429240634  -4.559533639
  H    3.393448728  -4.190073199  -3.679123638
  O    2.023928208  -3.398373795  -1.741306684
  O    1.513800875  -5.031057732   2.916705186
  O    0.879785785  -3.880287359   0.563192594
  N    1.738931508  -7.191468384  -4.313090766
  C    0.570825823  -6.731571161  -5.043220690
  N   -0.473464712  -7.627031239  -5.237595479
  C   -0.367060931  -8.939183094  -4.857572587
  C    0.828785222  -9.430240967  -4.235917709
  C    1.831105626  -8.540997823  -3.953070758
  O    0.509278030  -5.591975041  -5.488226510
  N   -1.443235142  -9.737320114  -5.158030735
  H   -1.487016564 -10.696850916  -4.838431212
  H   -2.330082635  -9.304563673  -5.419595847
  H    2.005102985  -4.644740948  -6.205321321
  H    2.749173934  -8.851772428  -3.419619371
  H    0.938594767 -10.487336141  -3.989129398
  H    1.613223627  -2.666958117  -2.301079345
  H   -2.220023031  -2.222381363  -4.953406592
  H   -3.106932665  -3.196712520  -2.127379362
  H    1.678462805  -3.631605869  -0.004467137
  H    3.392147084  -6.746359923  -9.799908215
  H   -0.846582376   1.289207658  -5.722221459

