%mem=64gb
%nproc=28       
%Chk=snap_133.chk
# opt b3lyp/6-31g(d,p)  scf=(xqc, tight)  pop=min    

tetra snap_133 

2     1 
  O    2.111976748  -4.273118273  -5.566801289
  C    2.566072593  -3.113343136  -6.276697067
  H    3.567198963  -3.273004407  -6.717506075
  H    2.625784581  -2.316144941  -5.505220319
  C    1.520081896  -2.749767763  -7.331755952
  H    1.598911236  -1.685655182  -7.657517645
  O    1.782174265  -3.499984550  -8.565974528
  C    0.684268737  -4.337716947  -8.891541430
  H    0.598594919  -4.340203959 -10.005002425
  C    0.081051927  -3.119171651  -6.888473161
  H    0.080973298  -3.749359550  -5.956604456
  C   -0.526465037  -3.858663687  -8.091052140
  H   -1.150349779  -3.156051942  -8.691934270
  H   -1.224540878  -4.665805113  -7.797390394
  O   -0.612946418  -1.869134135  -6.721236191
  N    1.128759534  -5.730922036  -8.467425360
  C    0.348115734  -6.885856132  -8.290753458
  C    1.216742783  -7.886912449  -7.758403890
  N    2.496224311  -7.330472350  -7.621310809
  C    2.438154346  -6.044888708  -8.044447208
  N   -0.976682496  -7.068811024  -8.585704946
  C   -1.448611326  -8.338196458  -8.358154875
  N   -0.652828865  -9.384315203  -7.828752139
  C    0.747327011  -9.220972930  -7.476982566
  N   -2.771261842  -8.581974921  -8.625522701
  H   -3.338843008  -7.848306398  -9.048225739
  H   -3.169549139  -9.511058867  -8.609534440
  O    1.328493659 -10.175489865  -7.016354628
  H    3.273836406  -5.332803090  -8.092470715
  H   -1.052596366 -10.321350991  -7.667491744
  P   -1.150437288  -1.583095533  -5.175879396
  O   -0.963898852   0.072930710  -5.160033598
  C    0.052013522   0.621306272  -4.293155549
  H    0.711013783   1.202885670  -4.980013876
  H    0.642227144  -0.176405606  -3.789963189
  C   -0.590729900   1.554718724  -3.266304472
  H    0.038789409   1.608877979  -2.339743860
  O   -0.553517710   2.904294156  -3.830809791
  C   -1.737218457   3.636833701  -3.486390955
  H   -1.384348549   4.571573418  -2.979458075
  C   -2.077720230   1.315677456  -2.900523237
  H   -2.648576788   0.803079568  -3.715885032
  C   -2.626716723   2.722350190  -2.635888307
  H   -2.544122333   2.962903116  -1.547435959
  H   -3.708571121   2.815790397  -2.847677918
  O   -2.129400402   0.588092290  -1.656702361
  O   -0.364371108  -2.348438130  -4.188914516
  O   -2.713817136  -1.628598798  -5.618974768
  N   -2.389961360   4.036557205  -4.770241822
  C   -2.785697268   3.262378618  -5.859366095
  C   -3.353132188   4.163723817  -6.820560438
  N   -3.291079856   5.477344506  -6.331484885
  C   -2.718468184   5.402046827  -5.133604462
  N   -2.742255026   1.895783265  -6.113822853
  C   -3.237877669   1.467350184  -7.356776311
  N   -3.774142781   2.263539201  -8.270788025
  C   -3.856481443   3.655280543  -8.059918913
  H   -3.184784716   0.370687258  -7.559195504
  N   -4.399644942   4.417551936  -9.024237467
  H   -4.741476880   4.013190560  -9.894644943
  H   -4.479671957   5.428322592  -8.909889600
  H   -2.506050836   6.235184181  -4.466724337
  P   -2.395510908  -1.019299008  -1.879466470
  O   -1.198058448  -1.728141682  -1.056448064
  C   -0.972191015  -3.128226589  -1.402986396
  H   -1.137867601  -3.331395419  -2.488190369
  H    0.131186302  -3.228005082  -1.200073481
  C   -1.766295109  -4.034935564  -0.463273953
  H   -1.548580878  -3.815323593   0.611990246
  O   -3.201496090  -3.768162953  -0.541145465
  C   -3.931791754  -4.860792494  -1.133111711
  H   -4.843521319  -4.953249428  -0.488582975
  C   -1.596219686  -5.532275301  -0.843100122
  H   -0.924852190  -5.698644870  -1.723035166
  C   -3.012492155  -6.076352229  -1.096203769
  H   -3.052100559  -6.698975216  -2.011694374
  H   -3.290460605  -6.766745914  -0.261924978
  O   -1.139604644  -6.279725133   0.308450209
  O   -2.490110280  -1.330690031  -3.356970656
  O   -3.782323860  -1.252397430  -1.093890748
  N   -4.346765338  -4.400806904  -2.494922910
  C   -3.512229917  -4.571510725  -3.642818783
  N   -4.065923900  -4.155392694  -4.873004262
  C   -5.350097531  -3.518440285  -5.049113040
  C   -6.064327209  -3.258758131  -3.787829312
  C   -5.581237428  -3.707882607  -2.605679848
  O   -2.394285424  -5.054678043  -3.590834626
  H   -3.495400082  -4.317454087  -5.716568843
  O   -5.673980766  -3.245932052  -6.180292508
  C   -7.337893373  -2.496225642  -3.889987103
  H   -8.216763530  -3.144344635  -3.735064658
  H   -7.397309358  -1.679196547  -3.156569815
  H   -7.468039822  -2.042772433  -4.888252978
  H   -6.131097200  -3.556710418  -1.665727986
  P    0.472538701  -6.276296106   0.594970170
  O    0.989787172  -6.424974470  -0.966547064
  C    2.395581322  -6.682337292  -1.143551536
  H    2.842362007  -7.248417212  -0.297318036
  H    2.416884374  -7.332243718  -2.042294437
  C    3.122502354  -5.348579564  -1.367237239
  H    3.064373345  -4.654597714  -0.499008960
  O    4.537173551  -5.724223385  -1.464152774
  C    5.047469290  -5.420000173  -2.771460304
  H    6.129216681  -5.197847580  -2.628760843
  C    2.773164265  -4.625532105  -2.693700966
  H    2.155695205  -5.250030849  -3.374501947
  C    4.162540080  -4.293712041  -3.285722037
  H    4.161930077  -4.179726245  -4.384781654
  H    4.512691509  -3.313825867  -2.894957609
  O    2.047206640  -3.437356988  -2.385775236
  O    1.000767988  -7.179460389   1.607710641
  O    0.745548634  -4.661905073   0.824221068
  N    4.913213626  -6.716431658  -3.559328017
  C    4.417133583  -6.793984724  -4.915232933
  N    3.996275230  -8.019575419  -5.406620031
  C    4.165833876  -9.170035860  -4.674441223
  C    4.823132381  -9.121830991  -3.391915023
  C    5.154080974  -7.906565943  -2.861171970
  O    4.335408271  -5.789747671  -5.621697038
  N    3.667928990 -10.320601885  -5.204409211
  H    3.756291215 -11.209928269  -4.733844287
  H    3.124468312 -10.311272343  -6.068633338
  H    2.685585247  -5.059270157  -5.769529338
  H    5.601012583  -7.806477152  -1.855289646
  H    5.051199015 -10.044153326  -2.855981951
  H    1.521472919  -3.179321411  -3.195658632
  H   -3.399706237  -1.691852486  -4.857661316
  H   -3.945135571  -2.230282823  -0.795683145
  H    1.119109665  -4.361600424   1.691833675
  H    3.285939580  -7.789498409  -7.072197615
  H   -2.225053124   1.231602245  -5.485854209

