%mem=64gb
%nproc=28       
%Chk=snap_5.chk
# opt b3lyp/6-31g(d,p)  scf=(xqc, tight)  pop=min    

tetra snap_5 

2     1 
  O    1.544945497  -5.492857988  -7.508836260
  C    1.876239655  -4.097150841  -7.471120002
  H    2.880876411  -4.061087785  -7.948701628
  H    1.957160385  -3.770586041  -6.411058882
  C    0.888723358  -3.205025207  -8.227825013
  H    1.103363988  -2.127494831  -8.008160012
  O    1.175623794  -3.285637913  -9.659935630
  C    0.048717415  -3.726734333 -10.398097378
  H    0.000220129  -3.078322168 -11.311014441
  C   -0.613131611  -3.543402429  -8.052971154
  H   -0.806136912  -4.444104970  -7.418069603
  C   -1.170323172  -3.709917458  -9.473947228
  H   -1.843348742  -2.850896962  -9.711493520
  H   -1.815968966  -4.604184298  -9.568072845
  O   -1.318760359  -2.391987564  -7.525111996
  N    0.370319000  -5.126675387 -10.862039679
  C    0.248882201  -5.607073571 -12.184879861
  C    0.776464475  -6.928762307 -12.184937233
  N    1.211531165  -7.220468444 -10.876627225
  C    0.969207326  -6.137949336 -10.096048759
  N   -0.282237501  -4.954924885 -13.260214103
  C   -0.267994134  -5.679904631 -14.433031669
  N    0.262582416  -6.983677953 -14.528988523
  C    0.821701443  -7.719672914 -13.393693205
  N   -0.815961101  -5.090302156 -15.541575668
  H   -1.191987259  -4.146743272 -15.473739283
  H   -0.799955033  -5.513349285 -16.458887265
  O    1.230371462  -8.831927358 -13.590632717
  H    1.212596473  -5.995510676  -8.971321409
  H    0.268844089  -7.485126114 -15.430540459
  P   -1.173039916  -2.165953144  -5.906073226
  O   -1.444757427  -0.527472190  -5.901707509
  C   -0.685259971   0.231944133  -4.935680023
  H   -0.216624233   1.044666159  -5.537553041
  H    0.121513475  -0.367661615  -4.456942799
  C   -1.633242890   0.826970952  -3.889258812
  H   -1.126782771   0.894502387  -2.884977102
  O   -1.828933812   2.238409808  -4.223878463
  C   -3.195170664   2.538681462  -4.457183975
  H   -3.393270727   3.475479437  -3.886891063
  C   -3.042487648   0.186326358  -3.791433132
  H   -3.211361790  -0.671001573  -4.486761803
  C   -4.038048587   1.331072649  -4.047688111
  H   -4.602087847   1.534043512  -3.102203159
  H   -4.815278154   1.047050602  -4.781785474
  O   -3.318201079  -0.210003121  -2.435656758
  O    0.091297421  -2.618804570  -5.283664443
  O   -2.540861981  -2.718595832  -5.300203924
  N   -3.315843502   2.834839563  -5.927489691
  C   -3.620475731   4.054869391  -6.525324303
  C   -3.473543814   3.869285805  -7.939821982
  N   -3.061367289   2.552751219  -8.200406222
  C   -2.960618177   1.952023340  -7.015037977
  N   -4.035955682   5.282028575  -6.004193295
  C   -4.289334560   6.306069788  -6.940404230
  N   -4.160960020   6.175421761  -8.248693914
  C   -3.741626545   4.958112246  -8.827986212
  H   -4.623186912   7.288456442  -6.533935601
  N   -3.622274497   4.903277767 -10.164637750
  H   -3.832158377   5.710757641 -10.752496972
  H   -3.322187384   4.046928118 -10.629016767
  H   -2.647020604   0.917414292  -6.827116837
  P   -2.610418860  -1.594079357  -1.877403942
  O   -1.094705114  -0.960976885  -1.900242601
  C    0.029187786  -1.668921682  -1.335554127
  H    0.468118414  -2.283523282  -2.155049701
  H    0.731271814  -0.850424415  -1.069312374
  C   -0.397602495  -2.491833732  -0.120661488
  H   -0.712549397  -1.881094415   0.760978389
  O   -1.623247029  -3.175195431  -0.556713367
  C   -1.379861925  -4.609703642  -0.756768906
  H   -2.336041458  -5.079263087  -0.407912994
  C    0.604436294  -3.595141683   0.285736538
  H    1.557671493  -3.553064890  -0.303583230
  C   -0.167549055  -4.913234769   0.107542707
  H    0.491442004  -5.704549799  -0.333331576
  H   -0.506608270  -5.322868622   1.090059000
  O    0.903286953  -3.334356671   1.669423204
  O   -2.861427704  -2.790111435  -2.746049395
  O   -3.283157155  -1.526145689  -0.409472352
  N   -1.199139832  -4.881416214  -2.211333762
  C    0.074694813  -4.835398197  -2.844524237
  N    0.139215047  -5.307972364  -4.175188390
  C   -0.995826705  -5.686175248  -4.953255778
  C   -2.273566601  -5.642636612  -4.257373334
  C   -2.344187066  -5.269264887  -2.950212303
  O    1.087870295  -4.411302028  -2.304957374
  H    1.059004876  -5.247470564  -4.634119048
  O   -0.778812606  -5.958924167  -6.133233673
  C   -3.490383547  -5.973820885  -5.051106370
  H   -3.262694716  -6.664112352  -5.879668571
  H   -4.271506808  -6.458073998  -4.447071405
  H   -3.925632418  -5.061045378  -5.493218282
  H   -3.302774171  -5.223085394  -2.409385270
  P    1.891962478  -4.436820983   2.415688121
  O    2.705181386  -4.963084485   1.093645989
  C    3.739327962  -5.966493123   1.297925788
  H    4.693078306  -5.395013834   1.278661640
  H    3.625205652  -6.503137556   2.262790244
  C    3.668944118  -6.964414711   0.136706905
  H    4.695164777  -7.237958843  -0.210935032
  O    3.116608098  -8.208751778   0.674709958
  C    1.991944248  -8.662625827  -0.112606173
  H    2.096250635  -9.771954995  -0.143878671
  C    2.755736718  -6.594543206  -1.055665722
  H    1.980520823  -5.840123447  -0.772671724
  C    2.116641052  -7.937696073  -1.449150698
  H    1.161383029  -7.828542748  -2.003571795
  H    2.782504597  -8.494135500  -2.141535186
  O    3.555179380  -6.076028644  -2.114953198
  O    1.231753249  -5.432108417   3.263311379
  O    2.964475873  -3.444470035   3.139156854
  N    0.756031064  -8.313507728   0.684875489
  C   -0.533616776  -7.941597629   0.082111306
  N   -1.602671725  -7.692498348   0.925219331
  C   -1.472619556  -7.827112265   2.278651185
  C   -0.210882328  -8.156874470   2.885394689
  C    0.866962308  -8.384383321   2.075860660
  O   -0.595733517  -7.799241492  -1.129371358
  N   -2.593067215  -7.583524678   3.034908200
  H   -2.593973825  -7.734040351   4.031173135
  H   -3.489886477  -7.447980880   2.589286752
  H    0.794562031  -5.707125742  -6.855305871
  H    1.861955198  -8.625032478   2.487468827
  H   -0.099589243  -8.169048708   3.968758361
  H    3.028011900  -5.362985430  -2.554842780
  H   -2.570062490  -2.916687278  -4.220154496
  H   -3.287279291  -2.380518058   0.140187662
  H    2.873709412  -3.283067261   4.119710055
  H    1.631952250  -8.105543156 -10.605398592
  H   -4.128444154   5.435243967  -4.996854002

