%mem=64gb
%nproc=28       
%Chk=snap_196.chk
# opt b3lyp/6-31g(d,p)  scf=(xqc, tight)  pop=min    

tetra snap_196 

2     1 
  O    2.204971482  -1.999487872  -4.270317092
  C    2.247600483  -3.191260594  -5.044759789
  H    1.889944085  -4.048787383  -4.442401721
  H    3.332783727  -3.321427785  -5.254012649
  C    1.471153661  -3.010207066  -6.354219129
  H    1.475440976  -1.938693824  -6.674401195
  O    2.225745865  -3.691010626  -7.408064740
  C    1.446830067  -4.675941735  -8.058617702
  H    1.641065608  -4.549215362  -9.156846905
  C    0.046297712  -3.615315822  -6.372829368
  H   -0.219746384  -4.158303067  -5.430691630
  C   -0.002555474  -4.542647085  -7.596342238
  H   -0.636194551  -4.075173792  -8.388063420
  H   -0.500733503  -5.504979399  -7.374408022
  O   -0.882503422  -2.541401675  -6.671156292
  N    2.029381349  -6.017745153  -7.669276696
  C    2.721228240  -6.866710043  -8.554801186
  C    3.166428385  -7.986349183  -7.790538608
  N    2.773647508  -7.779469511  -6.456982999
  C    2.098197356  -6.606969114  -6.389011106
  N    2.921834170  -6.687998524  -9.895379749
  C    3.628609443  -7.691095893 -10.512009547
  N    4.092408834  -8.845240699  -9.830505899
  C    3.873943972  -9.075345042  -8.413081005
  N    3.873381979  -7.566167591 -11.852542018
  H    3.553841718  -6.733464153 -12.346385768
  H    4.401909665  -8.243081731 -12.384302067
  O    4.281492692 -10.119926079  -7.954786847
  H    1.632402944  -6.167661490  -5.477506775
  H    4.610776477  -9.582583357 -10.332426993
  P   -1.708519961  -1.986129991  -5.360496898
  O   -2.710196314  -0.874423098  -6.034669479
  C   -2.064171168   0.298748792  -6.584042171
  H   -2.906844213   0.801828744  -7.104411226
  H   -1.310800472   0.012535743  -7.346175883
  C   -1.470238245   1.183150811  -5.477411170
  H   -0.392486833   0.961798750  -5.260681069
  O   -1.450069986   2.541593058  -5.995961259
  C   -2.281201423   3.408687769  -5.222831179
  H   -1.677782594   4.346513968  -5.093427513
  C   -2.310514842   1.208134032  -4.174045178
  H   -3.226189383   0.576130425  -4.249829317
  C   -2.640399725   2.690881918  -3.927823543
  H   -1.998487390   3.058478620  -3.084008235
  H   -3.666309481   2.857187891  -3.552003445
  O   -1.451987820   0.796316687  -3.102032816
  O   -0.689005522  -1.471967138  -4.361920603
  O   -2.604184166  -3.279884110  -5.047103941
  N   -3.436141087   3.763507864  -6.114372093
  C   -4.733914539   3.270641698  -6.228431253
  C   -5.319376159   3.915617283  -7.371542736
  N   -4.378804064   4.765018003  -7.972626109
  C   -3.273074897   4.664273049  -7.241641155
  N   -5.482293545   2.367334235  -5.479503003
  C   -6.823419366   2.191102561  -5.860649056
  N   -7.401040627   2.764296985  -6.905821943
  C   -6.683918467   3.665681481  -7.717976274
  H   -7.429965488   1.502689530  -5.229729774
  N   -7.320982253   4.232406566  -8.757267875
  H   -8.300258934   4.029961243  -8.954094824
  H   -6.843177022   4.895714989  -9.367270105
  H   -2.329977859   5.177909891  -7.420571278
  P   -1.740632933  -0.720854413  -2.502836522
  O   -0.296728926  -1.184933367  -1.920588454
  C    0.010084788  -2.594105905  -1.971081511
  H    0.250554006  -2.876438548  -3.018165770
  H    0.950650075  -2.627857482  -1.374060158
  C   -1.107010005  -3.425362030  -1.332533217
  H   -0.770413196  -3.889291128  -0.373159903
  O   -2.159483200  -2.469929480  -0.997018230
  C   -3.444203774  -3.202491933  -0.881144836
  H   -3.587891573  -3.348474823   0.219588819
  C   -1.831344387  -4.471246574  -2.221985872
  H   -1.818558656  -4.246237908  -3.313986682
  C   -3.257320665  -4.511916518  -1.649549125
  H   -4.017756396  -4.688715653  -2.445932340
  H   -3.369820933  -5.397756720  -0.982234317
  O   -1.300062555  -5.796843695  -1.987094478
  O   -2.747993922  -1.469565849  -3.374619252
  O   -2.429316422  -0.168284158  -1.106203928
  N   -4.486238365  -2.255842539  -1.361348947
  C   -4.804177189  -2.168005147  -2.754645178
  N   -5.297972269  -0.919571321  -3.234974189
  C   -5.378868679   0.254498379  -2.437582069
  C   -5.254311840   0.038271637  -0.996198571
  C   -4.753436951  -1.133094861  -0.523711639
  O   -4.804606665  -3.139283043  -3.499317324
  H   -5.406807090  -0.848145081  -4.255235861
  O   -5.532579939   1.323689118  -3.025080283
  C   -5.626746538   1.165171723  -0.098405843
  H   -4.743595825   1.583631108   0.412047033
  H   -6.093988747   1.999793310  -0.648251831
  H   -6.347478472   0.856653565   0.675089792
  H   -4.549672649  -1.284183694   0.545236122
  P    0.175772978  -6.101118213  -2.625735960
  O    1.060715628  -5.314819029  -1.473499568
  C    2.457779460  -5.640009178  -1.330202082
  H    2.920567070  -5.987104204  -2.278727005
  H    2.904269641  -4.652919075  -1.066733658
  C    2.615122096  -6.629467929  -0.173136884
  H    1.910949943  -6.380581839   0.658548362
  O    2.182664911  -7.975755932  -0.553643366
  C    3.287295595  -8.913105848  -0.553608626
  H    3.006185270  -9.651283794   0.241475237
  C    4.090856607  -6.761700777   0.295991672
  H    4.746690653  -5.919027836  -0.030076547
  C    4.559387234  -8.123484916  -0.246890549
  H    5.194479008  -7.982679509  -1.147957065
  H    5.218039114  -8.641000498   0.479842954
  O    4.177787683  -6.665387404   1.703189985
  O    0.456768898  -5.590153697  -3.994187473
  O    0.305531019  -7.692708347  -2.425035233
  N    3.292343850  -9.605701119  -1.875648304
  C    3.386741882  -8.882986437  -3.142289390
  N    3.439310279  -9.611340094  -4.316325265
  C    3.489684642 -10.981783991  -4.303567999
  C    3.384085151 -11.706019340  -3.055363112
  C    3.280132136 -11.008570459  -1.888580007
  O    3.390860705  -7.663019655  -3.139377837
  N    3.619649967 -11.609073867  -5.502599159
  H    3.714287215 -12.612081546  -5.574791681
  H    3.762506428 -11.068488733  -6.362439192
  H    1.267582363  -1.716087827  -4.074415739
  H    3.190106365 -11.523553267  -0.919238168
  H    3.385409040 -12.796974567  -3.054303449
  H    3.700318500  -7.388361149   2.167817447
  H   -3.492264253  -3.128054827  -4.517391268
  H   -1.883368365  -0.280497692  -0.276979834
  H    1.164473499  -8.029375962  -1.941274012
  H    3.029941876  -8.426643221  -5.660880736
  H   -5.130775413   1.933213210  -4.585500369

