%mem=64gb
%nproc=28       
%Chk=snap_6.chk
# opt b3lyp/6-31g(d,p)  scf=(xqc, tight)  pop=min    

tetra snap_6 

2     1 
  O    0.924324270  -5.613627197  -7.525594315
  C    1.576915129  -4.332290695  -7.471943143
  H    2.576401060  -4.534296626  -7.914597932
  H    1.689619431  -4.038895381  -6.404323098
  C    0.839486900  -3.241152407  -8.254167045
  H    1.190709210  -2.226271711  -7.940125152
  O    1.269527581  -3.287287867  -9.651127985
  C    0.183027159  -3.540170080 -10.525636431
  H    0.346858985  -2.889705235 -11.423733063
  C   -0.707305076  -3.360336783  -8.259165921
  H   -1.087764605  -4.283299814  -7.750145350
  C   -1.113206985  -3.320503710  -9.739445273
  H   -1.563513808  -2.326628889  -9.975153131
  H   -1.910006084  -4.051171147  -9.976686285
  O   -1.322440564  -2.192253281  -7.660532586
  N    0.325969657  -4.973472022 -10.977980737
  C    0.469450193  -5.414773964 -12.313305813
  C    0.680111909  -6.821903967 -12.254450170
  N    0.696319714  -7.200490447 -10.898024285
  C    0.497067006  -6.091066397 -10.145839894
  N    0.424047722  -4.660331384 -13.449330681
  C    0.629327931  -5.369532458 -14.614587452
  N    0.827222795  -6.766370116 -14.647845648
  C    0.861911163  -7.609439733 -13.452624665
  N    0.636587050  -4.663034098 -15.786987973
  H    0.509831795  -3.653380953 -15.767932255
  H    0.793727278  -5.092020993 -16.688058780
  O    1.028028379  -8.789432666 -13.600712662
  H    0.518622554  -6.007750553  -8.988384368
  H    0.965387131  -7.259044889 -15.544364685
  P   -1.199771553  -2.120953160  -6.022615145
  O   -1.011914022  -0.478883031  -5.906759514
  C   -0.220109837  -0.004846799  -4.795755334
  H    0.538370715   0.657455359  -5.276782958
  H    0.306365403  -0.826091584  -4.259343611
  C   -1.095002629   0.807290495  -3.841893961
  H   -0.597357799   0.895338899  -2.836961418
  O   -1.104963871   2.191990791  -4.325993951
  C   -2.423915586   2.703005276  -4.420699125
  H   -2.395979692   3.692141555  -3.906485580
  C   -2.575399393   0.376447196  -3.686937590
  H   -2.908654510  -0.413478791  -4.401261882
  C   -3.393489126   1.670534593  -3.843326161
  H   -3.770432424   1.977234859  -2.836049882
  H   -4.303728128   1.513381823  -4.451105542
  O   -2.793768950  -0.009423934  -2.322532550
  O   -0.136497440  -2.950970478  -5.409775613
  O   -2.682505737  -2.307637725  -5.464216678
  N   -2.694259475   2.933607299  -5.884788056
  C   -3.293393456   4.043506350  -6.471624021
  C   -3.364195194   3.776072991  -7.879229213
  N   -2.799716209   2.519557803  -8.147628946
  C   -2.404882432   2.029156380  -6.972079730
  N   -3.793086223   5.236539948  -5.943792176
  C   -4.346922399   6.145430173  -6.868588410
  N   -4.434254680   5.933899964  -8.169929701
  C   -3.953830683   4.741976702  -8.753904864
  H   -4.741302012   7.103265079  -6.458739091
  N   -4.087514049   4.589168646 -10.081718047
  H   -4.514576565   5.311524893 -10.661653375
  H   -3.756764914   3.745278036 -10.547763063
  H   -1.905428670   1.067182749  -6.790857099
  P   -2.569099876  -1.590516109  -1.898746522
  O   -0.949129410  -1.461604150  -1.748430368
  C   -0.158003704  -2.467143736  -1.069385695
  H    0.307963466  -3.073904219  -1.878783709
  H    0.626380529  -1.867988172  -0.554405414
  C   -0.973604907  -3.296518437  -0.079334752
  H   -1.221379997  -2.749368275   0.863162801
  O   -2.275157043  -3.511230342  -0.726654605
  C   -2.468199398  -4.926430067  -1.065453608
  H   -3.557899761  -5.078455221  -0.867974589
  C   -0.400670223  -4.708249389   0.205269644
  H    0.539668808  -4.938647349  -0.381626053
  C   -1.528851052  -5.681158844  -0.149330290
  H   -1.141950778  -6.648273029  -0.577356941
  H   -2.028422959  -6.040527463   0.787406660
  O   -0.169538724  -4.868673306   1.618146698
  O   -3.089039279  -2.549353834  -2.933621294
  O   -3.348949425  -1.455968188  -0.486649654
  N   -2.210369376  -5.121255954  -2.524981525
  C   -0.895994918  -5.252413754  -3.062701288
  N   -0.807970625  -5.551465788  -4.443321639
  C   -1.911119760  -5.539395114  -5.345954897
  C   -3.206423834  -5.246106698  -4.742939607
  C   -3.319890651  -5.038513240  -3.403501456
  O    0.130681442  -5.133151292  -2.414397296
  H    0.145818878  -5.626265697  -4.830078055
  O   -1.645113215  -5.727529020  -6.531858828
  C   -4.366416769  -5.111365760  -5.667454169
  H   -4.454771234  -4.069939417  -6.027018432
  H   -4.257076055  -5.754662229  -6.555545806
  H   -5.321919063  -5.382062952  -5.196905055
  H   -4.284461059  -4.783777687  -2.937809013
  P    1.311999257  -4.427234156   2.175698014
  O    2.192375874  -4.490921672   0.791463253
  C    3.549837854  -5.004092053   0.861091401
  H    4.162823444  -4.139719445   0.530127504
  H    3.839922630  -5.310312887   1.889889431
  C    3.690082558  -6.186742029  -0.102665113
  H    4.675898481  -6.157668802  -0.626937588
  O    3.748709524  -7.396034898   0.710371672
  C    2.710931770  -8.327980274   0.323642646
  H    3.179282676  -9.333260096   0.435621754
  C    2.534788554  -6.408532536  -1.109896433
  H    1.606192345  -5.851729366  -0.829021546
  C    2.323132587  -7.929463430  -1.096644824
  H    1.293536965  -8.228311336  -1.391967195
  H    2.986866466  -8.416477711  -1.840267013
  O    2.964337638  -5.966105320  -2.398479500
  O    1.812424063  -5.062253351   3.390679734
  O    1.062127792  -2.795123315   2.227656769
  N    1.625647617  -8.175698084   1.357571285
  C    0.188502777  -8.171968898   1.056572766
  N   -0.701556265  -8.030021986   2.103033493
  C   -0.257529363  -7.908227655   3.386670667
  C    1.148672361  -7.913119915   3.704104995
  C    2.048677278  -8.036850726   2.684488088
  O   -0.165524910  -8.255526676  -0.111986353
  N   -1.210875727  -7.759380033   4.362093071
  H   -0.963592792  -7.706704964   5.335592374
  H   -2.192676446  -7.812763672   4.130593849
  H    0.085802698  -5.609299012  -6.952880056
  H    3.136439009  -8.014787637   2.862714608
  H    1.488644884  -7.760485868   4.726880503
  H    2.189247264  -5.543467867  -2.840519938
  H   -2.783378885  -2.589054980  -4.399315231
  H   -3.638737165  -2.314020739  -0.027350559
  H    1.308719219  -2.313540388   3.058760962
  H    0.844551227  -8.154291635 -10.578223811
  H   -3.734457628   5.448955256  -4.945289854

