%mem=64gb
%nproc=28       
%Chk=snap_7.chk
# opt b3lyp/6-31g(d,p)  scf=(xqc, tight)  pop=min    

tetra snap_7 

2     1 
  O    1.500951282  -5.607907838  -7.284609584
  C    2.156248333  -4.334508748  -7.417886122
  H    3.124021802  -4.597315978  -7.899604282
  H    2.340436983  -3.926611551  -6.397956637
  C    1.379214309  -3.329833847  -8.270238412
  H    1.824110848  -2.306482231  -8.168658266
  O    1.597252800  -3.640082366  -9.685073498
  C    0.369452747  -3.812152815 -10.374466136
  H    0.497399344  -3.325610100 -11.374902071
  C   -0.157363499  -3.295918498  -8.065700324
  H   -0.548408100  -4.158484851  -7.467224496
  C   -0.753190330  -3.281552632  -9.479079686
  H   -1.035971816  -2.239497357  -9.757039509
  H   -1.695677151  -3.856869058  -9.550083268
  O   -0.510432233  -2.021544121  -7.467933133
  N    0.220303770  -5.296419831 -10.606313836
  C   -0.148821297  -5.910569181 -11.823163411
  C   -0.077606402  -7.314794076 -11.606068186
  N    0.347656532  -7.523990494 -10.277356903
  C    0.526477379  -6.314937988  -9.692151534
  N   -0.502908089  -5.295915174 -12.990217622
  C   -0.788359432  -6.158571548 -14.025866423
  N   -0.747121975  -7.563247342 -13.897118345
  C   -0.387566968  -8.254830100 -12.657674323
  N   -1.146846920  -5.600691046 -15.225479042
  H   -1.153488976  -4.587445444 -15.324834930
  H   -1.287298145  -6.144173023 -16.065029283
  O   -0.394318129  -9.456318151 -12.664187429
  H    0.911818131  -6.088916400  -8.601610991
  H   -0.978913986  -8.173181051 -14.696263558
  P   -0.595838818  -2.111564532  -5.827966392
  O   -0.680152064  -0.501950603  -5.487315248
  C   -0.162368636  -0.119516371  -4.184960456
  H    0.682719911   0.571488798  -4.413325756
  H    0.225945547  -0.986870462  -3.602970470
  C   -1.266053196   0.616750874  -3.423458745
  H   -1.074838691   0.581904635  -2.318062792
  O   -1.124646901   2.045485970  -3.722082780
  C   -2.343526304   2.610118854  -4.176583144
  H   -2.476074143   3.541546063  -3.577343785
  C   -2.727979373   0.227896117  -3.773363943
  H   -2.811684933  -0.475315412  -4.634214813
  C   -3.448098022   1.562049122  -4.044115286
  H   -4.123066658   1.781225754  -3.179596234
  H   -4.120801154   1.500454860  -4.919647360
  O   -3.410467947  -0.300901300  -2.629583498
  O    0.508835857  -2.867236997  -5.186165150
  O   -2.104449533  -2.644225811  -5.633110004
  N   -2.127122447   2.997824438  -5.616440573
  C   -2.441936176   4.209743029  -6.223521401
  C   -2.007940477   4.114262293  -7.587263253
  N   -1.428203168   2.855456043  -7.806431408
  C   -1.497758605   2.204103011  -6.644945127
  N   -3.074317618   5.363477950  -5.754802855
  C   -3.243444424   6.407332645  -6.687627162
  N   -2.849150577   6.360859819  -7.947703084
  C   -2.199291750   5.222343203  -8.472042433
  H   -3.749930547   7.330438416  -6.323703928
  N   -1.804961760   5.254623397  -9.755513322
  H   -1.962362827   6.075944271 -10.340608351
  H   -1.326459085   4.459412350 -10.178234867
  H   -1.133728509   1.189442443  -6.437326347
  P   -3.001282954  -1.821362941  -2.106241283
  O   -2.267333706  -1.313272692  -0.742048549
  C   -1.327136581  -2.228394937  -0.121022129
  H   -0.484678678  -2.437311871  -0.817415717
  H   -0.952818924  -1.639579368   0.746394504
  C   -2.092434331  -3.473638321   0.312761916
  H   -2.724775889  -3.309037771   1.215381563
  O   -3.056494024  -3.723188790  -0.776331898
  C   -3.011839566  -5.131256308  -1.186838271
  H   -4.089306206  -5.422454556  -1.193929332
  C   -1.247475283  -4.764734072   0.428249320
  H   -0.265322449  -4.706056048  -0.132087949
  C   -2.140686730  -5.852483071  -0.173586607
  H   -1.520184830  -6.688258969  -0.607707762
  H   -2.721888256  -6.364934954   0.623194621
  O   -1.089364549  -5.057980182   1.827330029
  O   -2.152467144  -2.513073581  -3.128417618
  O   -4.523720042  -2.331119973  -1.890357508
  N   -2.479008013  -5.204746967  -2.582491961
  C   -1.168585959  -4.738403434  -2.911144894
  N   -0.697437279  -5.046907097  -4.216567417
  C   -1.474571189  -5.672614291  -5.222313387
  C   -2.827631279  -6.065347995  -4.826716963
  C   -3.274874217  -5.831536477  -3.564694114
  O   -0.451395136  -4.115493236  -2.150817141
  H    0.230324452  -4.623789562  -4.465197357
  O   -0.964031709  -5.806185514  -6.335524274
  C   -3.675246891  -6.702017700  -5.872016726
  H   -4.288960428  -7.524333840  -5.475676284
  H   -4.353606276  -5.969758528  -6.338266279
  H   -3.061510201  -7.130875578  -6.682743390
  H   -4.286947497  -6.124784230  -3.251221048
  P    0.396162708  -4.781932086   2.469707505
  O    1.289286319  -4.657442311   1.105194959
  C    2.727128383  -4.459932827   1.180340316
  H    2.912469631  -3.439261844   1.565492654
  H    3.183335971  -5.226712264   1.841498590
  C    3.244540305  -4.627441643  -0.260317288
  H    4.016091514  -3.862737927  -0.507066964
  O    3.970621909  -5.890202088  -0.302524938
  C    3.252413129  -6.853180284  -1.109546441
  H    4.043231935  -7.520199332  -1.521227636
  C    2.156140533  -4.720855305  -1.360492200
  H    1.115357819  -4.745766535  -0.938984290
  C    2.489470706  -6.015099240  -2.130504960
  H    1.583463388  -6.514064447  -2.531171015
  H    3.128655244  -5.785254238  -3.005564683
  O    2.289010573  -3.576985874  -2.207076376
  O    0.810046343  -5.654095974   3.566952367
  O    0.247365245  -3.174219918   2.822758970
  N    2.392966928  -7.626580849  -0.147343181
  C    0.925260681  -7.556306861  -0.118858024
  N    0.277465826  -7.841247743   1.068646363
  C    0.962001841  -8.320564328   2.146636801
  C    2.388602875  -8.549726544   2.084663257
  C    3.062828649  -8.157062849   0.965542614
  O    0.323775904  -7.224736712  -1.132499816
  N    0.230130268  -8.621640119   3.270525349
  H    0.695919825  -8.705756068   4.164130449
  H   -0.733624294  -8.305850059   3.318276376
  H    0.713392315  -5.537443906  -6.643436563
  H    4.159149460  -8.233738928   0.894927265
  H    2.906067837  -9.015165875   2.922338642
  H    1.439081504  -3.464380439  -2.700792739
  H   -2.403284425  -2.871468454  -4.637918913
  H   -4.777589199  -2.685390505  -0.978521591
  H    0.206831014  -2.899633665   3.772822022
  H    0.491481362  -8.442968285  -9.868655565
  H   -3.374927047   5.453720164  -4.782207200

