%mem=64gb
%nproc=28       
%Chk=snap_140.chk
# opt b3lyp/6-31g(d,p)  scf=(xqc, tight)  pop=min    

tetra snap_140 

2     1 
  O    2.533547900  -3.968859420  -5.555599958
  C    2.693735533  -3.452165598  -6.880377916
  H    3.277508455  -4.140455580  -7.518189364
  H    3.258082470  -2.505045745  -6.741186220
  C    1.316498288  -3.169301904  -7.494559597
  H    1.346564623  -2.285142917  -8.182188728
  O    0.961700006  -4.267135753  -8.389124154
  C   -0.201475795  -4.952926532  -7.947693313
  H   -0.812285030  -5.145051300  -8.868785930
  C    0.168705933  -3.037401940  -6.467425037
  H    0.529206328  -3.106658445  -5.407887855
  C   -0.862855112  -4.116130809  -6.850682032
  H   -1.787285736  -3.636741022  -7.255098424
  H   -1.217107923  -4.701919982  -5.978722920
  O   -0.361146714  -1.714137271  -6.742758772
  N    0.275324802  -6.297427619  -7.454458706
  C    0.399114510  -7.455061624  -8.256947960
  C    1.213247313  -8.373345887  -7.528155626
  N    1.562052310  -7.773656448  -6.312306569
  C    1.026016382  -6.534508546  -6.279513624
  N   -0.156895437  -7.703791898  -9.477726535
  C    0.132562687  -8.943428672 -10.003332970
  N    0.976002703  -9.887191557  -9.364562754
  C    1.599099194  -9.650564167  -8.072544366
  N   -0.427615512  -9.260925297 -11.209662621
  H   -1.026604467  -8.583995700 -11.680621729
  H   -0.261514020 -10.135837288 -11.685660003
  O    2.340938125 -10.494902803  -7.627666525
  H    1.146929503  -5.802296490  -5.463086539
  H    1.186045275 -10.792175401  -9.810820495
  P   -1.269880459  -1.069622015  -5.536261844
  O   -1.295117432   0.543442452  -5.921269293
  C   -0.201323443   1.342163526  -5.416269535
  H   -0.076261835   2.117170362  -6.211887649
  H    0.736701174   0.757319841  -5.344025877
  C   -0.563157574   2.008106283  -4.083287857
  H    0.267401552   1.915658115  -3.338086951
  O   -0.645674046   3.439124127  -4.378119841
  C   -1.827465197   4.020501899  -3.826599099
  H   -1.485902891   4.954406966  -3.309891453
  C   -1.919035703   1.634580867  -3.428234267
  H   -2.633030395   1.151522057  -4.150934936
  C   -2.487726103   2.971884720  -2.930375599
  H   -2.211054298   3.118286275  -1.857063365
  H   -3.593500836   2.999341557  -2.929843788
  O   -1.648432153   0.805846228  -2.293600276
  O   -0.658421331  -1.380698214  -4.204424495
  O   -2.724300249  -1.431536217  -6.156002991
  N   -2.698152259   4.436607514  -4.974225765
  C   -3.323476343   3.682084075  -5.966207284
  C   -4.006845141   4.610752173  -6.820415489
  N   -3.784855537   5.920473040  -6.370039233
  C   -3.009807192   5.816164793  -5.294148213
  N   -3.402600730   2.314460901  -6.215710965
  C   -4.149108258   1.914057234  -7.337794734
  N   -4.798516605   2.738458420  -8.145822992
  C   -4.761274918   4.132324736  -7.938385502
  H   -4.195483260   0.816145796  -7.531706424
  N   -5.427328072   4.925743936  -8.794535905
  H   -5.950297192   4.542408252  -9.580112942
  H   -5.427626242   5.939266414  -8.677469488
  H   -2.632891614   6.639635046  -4.690359263
  P   -2.135725337  -0.765749597  -2.487763393
  O   -0.904441194  -1.549619128  -1.785969329
  C   -0.710770918  -2.951969628  -2.089843243
  H   -1.169575722  -3.255249190  -3.050487439
  H    0.404828386  -3.023577369  -2.185586220
  C   -1.197859975  -3.773132114  -0.886864392
  H   -0.611810219  -3.560343369   0.040510065
  O   -2.552447565  -3.386298616  -0.515381465
  C   -3.514421869  -4.392602925  -0.887637670
  H   -4.216096011  -4.424792309  -0.016114611
  C   -1.256955288  -5.288327708  -1.213955855
  H   -0.812443761  -5.529681174  -2.206355300
  C   -2.742332571  -5.686331965  -1.123122097
  H   -3.069295055  -6.241217522  -2.030240109
  H   -2.923219657  -6.405008740  -0.291209050
  O   -0.472237178  -5.898736041  -0.166603318
  O   -2.819900115  -0.921592839  -3.835688497
  O   -3.276860161  -0.921977744  -1.338501600
  N   -4.262887167  -3.873516968  -2.078516103
  C   -3.758023276  -3.990420325  -3.403265918
  N   -4.480635594  -3.308666011  -4.404659348
  C   -5.507345669  -2.322013775  -4.156789374
  C   -6.034078506  -2.349842433  -2.786265693
  C   -5.406614129  -3.065022483  -1.822352746
  O   -2.761524009  -4.635974986  -3.703659719
  H   -4.127189587  -3.402952168  -5.368836705
  O   -5.777568985  -1.597794513  -5.090840342
  C   -7.250726153  -1.533031496  -2.531055741
  H   -7.758389356  -1.791070525  -1.591211390
  H   -7.005194805  -0.458563719  -2.488245441
  H   -7.995830785  -1.656602459  -3.336016651
  H   -5.753836670  -3.058634659  -0.780147371
  P   -0.122017171  -7.496481560  -0.388913430
  O    1.025208309  -7.455445483  -1.562467614
  C    2.407199985  -7.608914527  -1.183128647
  H    2.538559122  -8.322563658  -0.343187896
  H    2.840736374  -8.061782321  -2.096990303
  C    3.037295481  -6.243640019  -0.861250338
  H    2.904222015  -5.961446356   0.207053962
  O    4.476016263  -6.442979998  -1.001232225
  C    4.961306021  -5.799392733  -2.186290696
  H    6.003639471  -5.488599826  -1.932989849
  C    2.654872375  -5.097302987  -1.838604079
  H    1.896652795  -5.417262383  -2.593763308
  C    3.991781025  -4.658200570  -2.478915657
  H    3.865661702  -4.422800097  -3.557337182
  H    4.355722057  -3.710848664  -2.033475128
  O    1.998988484  -4.027540806  -1.182754787
  O   -1.268373249  -8.356190326  -0.681089093
  O    0.767142753  -7.763047805   0.958901107
  N    5.030814629  -6.867905031  -3.258626668
  C    3.964475979  -7.109352620  -4.202786542
  N    3.963845189  -8.266733567  -4.958277189
  C    4.970419775  -9.192476759  -4.850761656
  C    6.060385902  -8.955878398  -3.932673467
  C    6.044717919  -7.834626797  -3.150911535
  O    3.039978794  -6.308026584  -4.345779819
  N    4.863693335 -10.300767720  -5.632284773
  H    5.546277657 -11.045125216  -5.607378154
  H    4.063196687 -10.424864916  -6.257788753
  H    2.846090482  -4.907337323  -5.481688818
  H    6.835096854  -7.643790710  -2.405797587
  H    6.880694644  -9.672153590  -3.856797450
  H    2.539610201  -3.627501823  -0.467371370
  H   -3.515777350  -1.477669938  -5.506728324
  H   -3.088482031  -1.635112315  -0.626301734
  H    0.304843401  -8.129803448   1.762701646
  H    2.235572947  -8.200396666  -5.625371327
  H   -2.815910938   1.618387498  -5.699569694

